40

C          0.75858        0.26839        0.00283
C         -0.03076       -0.88195        0.00379
C         -1.45353       -0.81262        0.00135
C         -2.06255        0.46592       -0.00395
C         -1.24531        1.62939       -0.00423
C          0.10908        1.54162       -0.00044
C         -2.28979       -1.97154        0.00324
C         -3.46854        0.57711       -0.00872
H         -1.71456        2.60311       -0.00717
C         -4.23406       -0.55611       -0.00773
C         -3.65596       -1.83308       -0.00107
H         -3.93479        1.55277       -0.01481
H         -4.27024       -2.72400       -0.00178
N          2.15349        0.24530        0.00401
N          2.69910       -0.88558        0.00492
C          4.10203       -0.93260        0.00491
C          4.68605       -2.19941       -0.00005
C          4.92553        0.19855        0.00677
C          6.05848       -2.34507       -0.00257
H          4.04738       -3.07484       -0.00365
C          6.29486        0.05775        0.00488
H          4.47974        1.18375        0.00860
C          6.89009       -1.21692       -0.00081
H          6.49962       -3.33478       -0.00619
H          6.92727        0.93818        0.00778
N          8.25740       -1.34933        0.04218
H          8.65080       -2.23778       -0.22656
H          8.81480       -0.55322       -0.22564
O          0.53724       -2.09701        0.00667
O         -1.79047       -3.22737        0.00839
H         -0.81800       -3.18600        0.00954
S         -6.02936       -0.43451       -0.00270
O         -6.46168       -1.05852        1.26865
O         -6.33930        1.00847       -0.07800
O         -6.47879       -1.19173       -1.19283
S          1.04554        3.09467        0.00093
O          1.84848        3.09517        1.24211
O          0.01025        4.15225       -0.00166
O          1.85426        3.09489       -1.23650
H          1.54381       -1.94824        0.00658
