40

C          0.71120        0.07992       -0.08855
C         -0.11855       -1.08011       -0.11217
C         -1.55880       -0.85746       -0.05092
C         -2.09761        0.44315        0.01911
C         -1.21249        1.56596        0.02443
C          0.12803        1.38894       -0.02491
C         -2.44351       -1.97045       -0.05275
C         -3.49128        0.62410        0.07583
H         -1.62372        2.56541        0.06090
C         -4.31625       -0.47456        0.06578
C         -3.80993       -1.77392        0.00254
H         -3.91078        1.61945        0.12838
H         -4.46617       -2.63451        0.00110
N          2.08970       -0.01252       -0.02164
N          2.79122       -1.03926       -0.24567
C          4.15992       -0.94467       -0.06014
C          4.88055       -2.10546       -0.37867
C          4.86950        0.18002        0.40428
C          6.24852       -2.15518       -0.25338
H          4.33094       -2.96896       -0.73223
C          6.23554        0.13429        0.53148
H          4.36461        1.10084        0.67232
C          6.95831       -1.03222        0.20490
H          6.78667       -3.06086       -0.50597
H          6.77196        1.00419        0.89158
N          8.30899       -1.07479        0.36657
H          8.83297       -1.83766       -0.03044
H          8.81859       -0.21982        0.51944
O          0.34132       -2.25907       -0.15216
O         -1.96415       -3.22394       -0.10581
H         -0.96493       -3.12202       -0.13075
S         -6.10201       -0.25543        0.12120
O         -6.56405       -1.04782        1.28388
O         -6.33111        1.19667        0.27982
O         -6.60720       -0.78497       -1.16689
S          1.14906        2.87369       -0.15496
O          2.35912        2.56505        0.67014
O          0.35694        3.98708        0.38425
O          1.48262        3.00805       -1.58574
H          2.53097        0.88534        0.26971
