40

C         -0.70114       -0.00191       -0.00760
C          0.15436        1.13962       -0.00477
C          1.57895        0.91998       -0.00642
C          2.08755       -0.39395       -0.01022
C          1.18058       -1.49838        0.00962
C         -0.16776       -1.32631        0.01503
C          2.47576        2.02128       -0.01355
C          3.48000       -0.59702       -0.02253
H          1.57933       -2.50228        0.03675
C          4.32085        0.48945       -0.03159
C          3.83781        1.80166       -0.02686
H          3.88648       -1.59909       -0.02786
H          4.51149        2.64852       -0.03733
N         -2.02117        0.40030       -0.01060
N         -3.05772       -0.30018       -0.13160
C         -4.28909        0.31520       -0.06256
C         -5.38260       -0.50194       -0.39162
C         -4.53593        1.65049        0.31157
C         -6.66546       -0.01275       -0.38424
H         -5.18829       -1.53186       -0.66339
C         -5.81577        2.14262        0.32844
H         -3.73514        2.31128        0.62168
C         -6.91182        1.32563       -0.02608
H         -7.49577       -0.65568       -0.64982
H         -5.99557        3.16755        0.62987
N         -8.17157        1.82866       -0.03085
H         -8.96181        1.21510       -0.14282
H         -8.35666        2.73903        0.35683
O         -0.33901        2.31950       -0.00669
O          2.00811        3.28184       -0.00904
H          1.01370        3.20716       -0.00354
S          6.10389        0.23931       -0.03305
O          6.58408        0.79880        1.25191
O          6.31119       -1.22043       -0.14256
O          6.60861        0.98900       -1.20604
S         -1.16282       -2.84259        0.09677
O         -2.02519       -2.69213        1.28718
O         -0.17511       -3.93404        0.25179
O         -1.89569       -2.93289       -1.18275
H         -2.05530        1.43199        0.06158
