40

C         -0.74905        0.07936        0.21660
C          0.18562        1.20489        0.39032
C          1.61426        0.95091        0.21634
C          2.08553       -0.35373       -0.01473
C          1.14564       -1.44980       -0.01703
C         -0.18091       -1.26530        0.09417
C          2.53741        2.01918        0.26934
C          3.44785       -0.58697       -0.19397
H          1.53464       -2.45768       -0.07329
C          4.32831        0.48062       -0.14894
C          3.89277        1.77585        0.07975
H          3.81515       -1.58827       -0.37316
H          4.58699        2.60526        0.10703
N         -1.99960        0.49276        0.15296
N         -3.01239       -0.23898       -0.13461
H         -2.89816       -1.22683       -0.42392
C         -4.30972        0.31011       -0.18463
C         -5.35465       -0.52283       -0.57437
C         -4.57559        1.63571        0.14482
C         -6.64851       -0.03765       -0.64160
H         -5.15510       -1.55829       -0.82613
C         -5.86990        2.11775        0.07581
H         -3.76773        2.28384        0.45516
C         -6.92992        1.29287       -0.31799
H         -7.45217       -0.69672       -0.94907
H         -6.06761        3.15227        0.33273
N         -8.21877        1.79980       -0.43732
H         -8.96369        1.12058       -0.38599
H         -8.41752        2.62379        0.11081
O         -0.21067        2.36131        0.63416
O          2.13576        3.27764        0.49115
H          1.14740        3.23034        0.60357
S          6.09786        0.18080       -0.31992
O          6.62574        0.17692        1.06357
O          6.21910       -1.13080       -0.98977
O          6.61501        1.30473       -1.12967
S         -1.16088       -2.77045        0.29273
O         -1.77842       -2.64485        1.62694
O         -0.23237       -3.90126        0.15488
O         -2.18083       -2.73555       -0.79792
