40

C          0.70820       -0.06076       -0.06157
C         -0.18413       -1.18123       -0.03950
C         -1.61831       -0.89990       -0.01711
C         -2.10209        0.42305       -0.01046
C         -1.17116        1.50860       -0.02559
C          0.16133        1.26950       -0.05088
C         -2.55079       -1.97457       -0.00098
C         -3.48980        0.66243        0.01019
H         -1.53893        2.52461       -0.01596
C         -4.36027       -0.39982        0.02343
C         -3.90907       -1.72183        0.01786
H         -3.86775        1.67569        0.01224
H         -4.60145       -2.55365        0.02452
N          2.07155       -0.11937       -0.06941
N          2.69441       -1.21624       -0.07065
C          4.09832       -1.02553       -0.01134
C          4.89401       -2.13063       -0.31044
C          4.70253        0.18032        0.36196
C          6.27584       -2.03976       -0.26365
H          4.41672       -3.06173       -0.58834
C          6.08165        0.27561        0.41553
H          4.07394        1.02737        0.60821
C          6.84664       -0.83411        0.09759
H          6.89103       -2.89802       -0.50542
H          6.55334        1.20694        0.70668
N          8.31616       -0.73508        0.17721
H          8.77154       -1.31885       -0.52868
H          8.63711        0.22398        0.02412
O          0.20744       -2.38915       -0.03850
O         -2.11807       -3.24610       -0.00618
H         -1.10846       -3.16857       -0.01921
S         -6.13427       -0.10373        0.06449
O         -6.60381       -0.65694        1.35715
O         -6.30966        1.36191       -0.03285
O         -6.68890       -0.83266       -1.10008
S          1.24835        2.72479       -0.09975
O          2.17094        2.63807        1.05531
O          0.33112        3.88564        0.01276
O          1.93640        2.69206       -1.41203
H          8.67172       -1.03085        1.09123
