 Entering Gaussian System, Link 0=g16
 Initial command:
 /share/Apps/gaussian/g16/l1.exe "/share/ceph/scratch/zjk220/12373143/Gau-2688473.inp" -scrdir="/share/ceph/scratch/zjk220/12373143/"
 Entering Link 1 = /share/Apps/gaussian/g16/l1.exe PID=   2688474.
  
 Copyright (c) 1988-2019, Gaussian, Inc.  All Rights Reserved.
  
 This is part of the Gaussian(R) 16 program.  It is based on
 the Gaussian(R) 09 system (copyright 2009, Gaussian, Inc.),
 the Gaussian(R) 03 system (copyright 2003, Gaussian, Inc.),
 the Gaussian(R) 98 system (copyright 1998, Gaussian, Inc.),
 the Gaussian(R) 94 system (copyright 1995, Gaussian, Inc.),
 the Gaussian 92(TM) system (copyright 1992, Gaussian, Inc.),
 the Gaussian 90(TM) system (copyright 1990, Gaussian, Inc.),
 the Gaussian 88(TM) system (copyright 1988, Gaussian, Inc.),
 the Gaussian 86(TM) system (copyright 1986, Carnegie Mellon
 University), and the Gaussian 82(TM) system (copyright 1983,
 Carnegie Mellon University). Gaussian is a federally registered
 trademark of Gaussian, Inc.
  
 This software contains proprietary and confidential information,
 including trade secrets, belonging to Gaussian, Inc.
  
 This software is provided under written license and may be
 used, copied, transmitted, or stored only in accord with that
 written license.
  
 The following legend is applicable only to US Government
 contracts under FAR:
  
                    RESTRICTED RIGHTS LEGEND
  
 Use, reproduction and disclosure by the US Government is
 subject to restrictions as set forth in subparagraphs (a)
 and (c) of the Commercial Computer Software - Restricted
 Rights clause in FAR 52.227-19.
  
 Gaussian, Inc.
 340 Quinnipiac St., Bldg. 40, Wallingford CT 06492
  
  
 ---------------------------------------------------------------
 Warning -- This program may not be used in any manner that
 competes with the business of Gaussian, Inc. or will provide
 assistance to any competitor of Gaussian, Inc.  The licensee
 of this program is prohibited from giving any competitor of
 Gaussian, Inc. access to this program.  By using this program,
 the user acknowledges that Gaussian, Inc. is engaged in the
 business of creating and licensing software in the field of
 computational chemistry and represents and warrants to the
 licensee that it is not a competitor of Gaussian, Inc. and that
 it will not use this program in any manner prohibited above.
 ---------------------------------------------------------------
  

 Cite this work as:
 Gaussian 16, Revision C.01,
 M. J. Frisch, G. W. Trucks, H. B. Schlegel, G. E. Scuseria, 
 M. A. Robb, J. R. Cheeseman, G. Scalmani, V. Barone, 
 G. A. Petersson, H. Nakatsuji, X. Li, M. Caricato, A. V. Marenich, 
 J. Bloino, B. G. Janesko, R. Gomperts, B. Mennucci, H. P. Hratchian, 
 J. V. Ortiz, A. F. Izmaylov, J. L. Sonnenberg, D. Williams-Young, 
 F. Ding, F. Lipparini, F. Egidi, J. Goings, B. Peng, A. Petrone, 
 T. Henderson, D. Ranasinghe, V. G. Zakrzewski, J. Gao, N. Rega, 
 G. Zheng, W. Liang, M. Hada, M. Ehara, K. Toyota, R. Fukuda, 
 J. Hasegawa, M. Ishida, T. Nakajima, Y. Honda, O. Kitao, H. Nakai, 
 T. Vreven, K. Throssell, J. A. Montgomery, Jr., J. E. Peralta, 
 F. Ogliaro, M. J. Bearpark, J. J. Heyd, E. N. Brothers, K. N. Kudin, 
 V. N. Staroverov, T. A. Keith, R. Kobayashi, J. Normand, 
 K. Raghavachari, A. P. Rendell, J. C. Burant, S. S. Iyengar, 
 J. Tomasi, M. Cossi, J. M. Millam, M. Klene, C. Adamo, R. Cammi, 
 J. W. Ochterski, R. L. Martin, K. Morokuma, O. Farkas, 
 J. B. Foresman, and D. J. Fox, Gaussian, Inc., Wallingford CT, 2019.
 
 ******************************************
 Gaussian 16:  ES64L-G16RevC.01  3-Jul-2019
                19-Mar-2025 
 ******************************************
 %chk=AV3_NH.chk
 %nprocshared=36
 Will use up to   36 processors via shared memory.
 -------------------------------------------------------
 # opt freq cam-b3lyp/6-311++g(d,p) scrf=(solvent=water)
 -------------------------------------------------------
 1/18=20,19=15,26=3,38=1/1,3;
 2/9=110,12=2,17=6,18=5,40=1/2;
 3/5=4,6=6,7=1111,11=2,25=1,30=1,70=2201,71=1,72=1,74=-40/1,2,3;
 4//1;
 5/5=2,38=5,53=1/2;
 6/7=2,8=2,9=2,10=2,28=1/1;
 7//1,2,3,16;
 1/18=20,19=15,26=3/3(2);
 2/9=110/2;
 99//99;
 2/9=110/2;
 3/5=4,6=6,7=1111,11=2,25=1,30=1,70=2205,71=1,72=1,74=-40/1,2,3;
 4/5=5,16=3,69=1/1;
 5/5=2,38=5,53=1/2;
 7//1,2,3,16;
 1/18=20,19=15,26=3/3(-5);
 2/9=110/2;
 6/7=2,8=2,9=2,10=2,19=2,28=1/1;
 99/9=1/99;
 --------
 opt freq
 --------
 Symbolic Z-matrix:
 Charge = -2 Multiplicity = 1
 C                     0.76046   0.22751   0.01354 
 C                    -0.0523   -0.96945   0.01876 
 C                    -1.49549  -0.83164   0.01069 
 C                    -2.08148   0.45033  -0.00084 
 C                    -1.23723   1.61769  -0.00107 
 C                     0.10475   1.52036   0.00583 
 C                    -2.32941  -1.97745   0.01088 
 C                    -3.47406   0.57866  -0.01357 
 H                    -1.70077   2.59435  -0.00731 
 C                    -4.25933  -0.55598  -0.01552 
 C                    -3.70616  -1.83153  -0.00292 
 H                    -3.9344    1.55699  -0.02711 
 H                    -4.32882  -2.71653  -0.00898 
 N                     2.09178   0.20041   0.01173 
 N                     2.73241  -0.90748   0.01665 
 H                     2.1819   -1.77778   0.02309 
 C                     4.13973  -0.95407   0.00897 
 C                     4.74936  -2.20526   0.00017 
 C                     4.9241    0.19588   0.00656 
 C                     6.12756  -2.30954  -0.01001 
 H                     4.1433   -3.10406  -0.00102 
 C                     6.30106   0.08898  -0.00337 
 H                     4.45352   1.16874   0.01124 
 C                     6.93     -1.16338  -0.01319 
 H                     6.59152  -3.28884  -0.01623 
 H                     6.90525   0.98887  -0.00345 
 N                     8.3105   -1.26322   0.02841 
 H                     8.70589  -2.13451  -0.29186 
 H                     8.82839  -0.45863  -0.29168 
 O                     0.48353  -2.11658   0.02814 
 O                    -1.81598  -3.21794   0.02115 
 H                    -0.83214  -3.11986   0.02676 
 S                    -6.05557  -0.40205  -0.01276 
 O                    -6.49192  -0.92612   1.30125 
 O                    -6.3373    1.03781  -0.18743 
 O                    -6.52276  -1.23164  -1.14528 
 S                     1.05628   3.06188   0.00424 
 O                     1.86163   3.05257   1.24417 
 O                     0.03573   4.13337   0.00104 
 O                     1.86492   3.04845  -1.23354 
 

 GradGradGradGradGradGradGradGradGradGradGradGradGradGradGradGradGradGrad
 Berny optimization.
 Initialization pass.
                           ----------------------------
                           !    Initial Parameters    !
                           ! (Angstroms and Degrees)  !
 --------------------------                            --------------------------
 ! Name  Definition              Value          Derivative Info.                !
 --------------------------------------------------------------------------------
 ! R1    R(1,2)                  1.4468         estimate D2E/DX2                !
 ! R2    R(1,6)                  1.4496         estimate D2E/DX2                !
 ! R3    R(1,14)                 1.3316         estimate D2E/DX2                !
 ! R4    R(2,3)                  1.4498         estimate D2E/DX2                !
 ! R5    R(2,30)                 1.2661         estimate D2E/DX2                !
 ! R6    R(3,4)                  1.4096         estimate D2E/DX2                !
 ! R7    R(3,7)                  1.4171         estimate D2E/DX2                !
 ! R8    R(4,5)                  1.4407         estimate D2E/DX2                !
 ! R9    R(4,8)                  1.3985         estimate D2E/DX2                !
 ! R10   R(5,6)                  1.3455         estimate D2E/DX2                !
 ! R11   R(5,9)                  1.0811         estimate D2E/DX2                !
 ! R12   R(6,37)                 1.8115         estimate D2E/DX2                !
 ! R13   R(7,11)                 1.3845         estimate D2E/DX2                !
 ! R14   R(7,31)                 1.3426         estimate D2E/DX2                !
 ! R15   R(8,10)                 1.3799         estimate D2E/DX2                !
 ! R16   R(8,12)                 1.0813         estimate D2E/DX2                !
 ! R17   R(10,11)                1.3904         estimate D2E/DX2                !
 ! R18   R(10,33)                1.8028         estimate D2E/DX2                !
 ! R19   R(11,13)                1.0821         estimate D2E/DX2                !
 ! R20   R(14,15)                1.2798         estimate D2E/DX2                !
 ! R21   R(15,16)                1.0298         estimate D2E/DX2                !
 ! R22   R(15,17)                1.4081         estimate D2E/DX2                !
 ! R23   R(17,18)                1.3918         estimate D2E/DX2                !
 ! R24   R(17,19)                1.392          estimate D2E/DX2                !
 ! R25   R(18,20)                1.3822         estimate D2E/DX2                !
 ! R26   R(18,21)                1.084          estimate D2E/DX2                !
 ! R27   R(19,22)                1.3811         estimate D2E/DX2                !
 ! R28   R(19,23)                1.0807         estimate D2E/DX2                !
 ! R29   R(20,24)                1.3991         estimate D2E/DX2                !
 ! R30   R(20,25)                1.0837         estimate D2E/DX2                !
 ! R31   R(22,24)                1.4015         estimate D2E/DX2                !
 ! R32   R(22,26)                1.0839         estimate D2E/DX2                !
 ! R33   R(24,27)                1.3847         estimate D2E/DX2                !
 ! R34   R(27,28)                1.009          estimate D2E/DX2                !
 ! R35   R(27,29)                1.009          estimate D2E/DX2                !
 ! R36   R(31,32)                0.9887         estimate D2E/DX2                !
 ! R37   R(33,34)                1.4804         estimate D2E/DX2                !
 ! R38   R(33,35)                1.4775         estimate D2E/DX2                !
 ! R39   R(33,36)                1.4796         estimate D2E/DX2                !
 ! R40   R(37,38)                1.4785         estimate D2E/DX2                !
 ! R41   R(37,39)                1.4797         estimate D2E/DX2                !
 ! R42   R(37,40)                1.4786         estimate D2E/DX2                !
 ! A1    A(2,1,6)              118.93           estimate D2E/DX2                !
 ! A2    A(2,1,14)             123.0112         estimate D2E/DX2                !
 ! A3    A(6,1,14)             118.0585         estimate D2E/DX2                !
 ! A4    A(1,2,3)              118.7207         estimate D2E/DX2                !
 ! A5    A(1,2,30)             120.7858         estimate D2E/DX2                !
 ! A6    A(3,2,30)             120.4934         estimate D2E/DX2                !
 ! A7    A(2,3,4)              120.0212         estimate D2E/DX2                !
 ! A8    A(2,3,7)              120.5919         estimate D2E/DX2                !
 ! A9    A(4,3,7)              119.3867         estimate D2E/DX2                !
 ! A10   A(3,4,5)              119.5589         estimate D2E/DX2                !
 ! A11   A(3,4,8)              119.8327         estimate D2E/DX2                !
 ! A12   A(5,4,8)              120.6084         estimate D2E/DX2                !
 ! A13   A(4,5,6)              121.7262         estimate D2E/DX2                !
 ! A14   A(4,5,9)              118.7348         estimate D2E/DX2                !
 ! A15   A(6,5,9)              119.5391         estimate D2E/DX2                !
 ! A16   A(1,6,5)              121.0424         estimate D2E/DX2                !
 ! A17   A(1,6,37)             121.4208         estimate D2E/DX2                !
 ! A18   A(5,6,37)             117.5367         estimate D2E/DX2                !
 ! A19   A(3,7,11)             119.9953         estimate D2E/DX2                !
 ! A20   A(3,7,31)             121.4676         estimate D2E/DX2                !
 ! A21   A(11,7,31)            118.5369         estimate D2E/DX2                !
 ! A22   A(4,8,10)             119.421          estimate D2E/DX2                !
 ! A23   A(4,8,12)             120.4673         estimate D2E/DX2                !
 ! A24   A(10,8,12)            120.1109         estimate D2E/DX2                !
 ! A25   A(8,10,11)            121.866          estimate D2E/DX2                !
 ! A26   A(8,10,33)            119.7884         estimate D2E/DX2                !
 ! A27   A(11,10,33)           118.3408         estimate D2E/DX2                !
 ! A28   A(7,11,10)            119.4981         estimate D2E/DX2                !
 ! A29   A(7,11,13)            119.0805         estimate D2E/DX2                !
 ! A30   A(10,11,13)           121.4205         estimate D2E/DX2                !
 ! A31   A(1,14,15)            121.2039         estimate D2E/DX2                !
 ! A32   A(14,15,16)           117.6469         estimate D2E/DX2                !
 ! A33   A(14,15,17)           121.9323         estimate D2E/DX2                !
 ! A34   A(16,15,17)           120.4205         estimate D2E/DX2                !
 ! A35   A(15,17,18)           117.8745         estimate D2E/DX2                !
 ! A36   A(15,17,19)           122.4015         estimate D2E/DX2                !
 ! A37   A(18,17,19)           119.7238         estimate D2E/DX2                !
 ! A38   A(17,18,20)           120.3057         estimate D2E/DX2                !
 ! A39   A(17,18,21)           120.0308         estimate D2E/DX2                !
 ! A40   A(20,18,21)           119.6633         estimate D2E/DX2                !
 ! A41   A(17,19,22)           119.8582         estimate D2E/DX2                !
 ! A42   A(17,19,23)           119.8882         estimate D2E/DX2                !
 ! A43   A(22,19,23)           120.2535         estimate D2E/DX2                !
 ! A44   A(18,20,24)           120.6694         estimate D2E/DX2                !
 ! A45   A(18,20,25)           119.6784         estimate D2E/DX2                !
 ! A46   A(24,20,25)           119.6522         estimate D2E/DX2                !
 ! A47   A(19,22,24)           121.1068         estimate D2E/DX2                !
 ! A48   A(19,22,26)           119.4375         estimate D2E/DX2                !
 ! A49   A(24,22,26)           119.4556         estimate D2E/DX2                !
 ! A50   A(20,24,22)           118.3358         estimate D2E/DX2                !
 ! A51   A(20,24,27)           120.8397         estimate D2E/DX2                !
 ! A52   A(22,24,27)           120.7722         estimate D2E/DX2                !
 ! A53   A(24,27,28)           116.3208         estimate D2E/DX2                !
 ! A54   A(24,27,29)           116.4034         estimate D2E/DX2                !
 ! A55   A(28,27,29)           112.7536         estimate D2E/DX2                !
 ! A56   A(7,31,32)            106.7931         estimate D2E/DX2                !
 ! A57   A(10,33,34)           105.3552         estimate D2E/DX2                !
 ! A58   A(10,33,35)           105.8432         estimate D2E/DX2                !
 ! A59   A(10,33,36)           105.4005         estimate D2E/DX2                !
 ! A60   A(34,33,35)           113.1851         estimate D2E/DX2                !
 ! A61   A(34,33,36)           112.8203         estimate D2E/DX2                !
 ! A62   A(35,33,36)           113.3103         estimate D2E/DX2                !
 ! A63   A(6,37,38)            106.2607         estimate D2E/DX2                !
 ! A64   A(6,37,39)            104.7092         estimate D2E/DX2                !
 ! A65   A(6,37,40)            106.2765         estimate D2E/DX2                !
 ! A66   A(38,37,39)           112.4599         estimate D2E/DX2                !
 ! A67   A(38,37,40)           113.8341         estimate D2E/DX2                !
 ! A68   A(39,37,40)           112.455          estimate D2E/DX2                !
 ! D1    D(6,1,2,3)              0.243          estimate D2E/DX2                !
 ! D2    D(6,1,2,30)          -179.863          estimate D2E/DX2                !
 ! D3    D(14,1,2,3)          -179.5645         estimate D2E/DX2                !
 ! D4    D(14,1,2,30)            0.3295         estimate D2E/DX2                !
 ! D5    D(2,1,6,5)             -0.2273         estimate D2E/DX2                !
 ! D6    D(2,1,6,37)           179.805          estimate D2E/DX2                !
 ! D7    D(14,1,6,5)           179.5898         estimate D2E/DX2                !
 ! D8    D(14,1,6,37)           -0.3779         estimate D2E/DX2                !
 ! D9    D(2,1,14,15)           -0.1088         estimate D2E/DX2                !
 ! D10   D(6,1,14,15)         -179.9179         estimate D2E/DX2                !
 ! D11   D(1,2,3,4)             -0.0535         estimate D2E/DX2                !
 ! D12   D(1,2,3,7)            179.787          estimate D2E/DX2                !
 ! D13   D(30,2,3,4)          -179.9478         estimate D2E/DX2                !
 ! D14   D(30,2,3,7)            -0.1073         estimate D2E/DX2                !
 ! D15   D(2,3,4,5)             -0.1577         estimate D2E/DX2                !
 ! D16   D(2,3,4,8)            179.7651         estimate D2E/DX2                !
 ! D17   D(7,3,4,5)            179.9998         estimate D2E/DX2                !
 ! D18   D(7,3,4,8)             -0.0773         estimate D2E/DX2                !
 ! D19   D(2,3,7,11)          -179.7112         estimate D2E/DX2                !
 ! D20   D(2,3,7,31)             0.1341         estimate D2E/DX2                !
 ! D21   D(4,3,7,11)             0.1303         estimate D2E/DX2                !
 ! D22   D(4,3,7,31)           179.9756         estimate D2E/DX2                !
 ! D23   D(3,4,5,6)              0.1825         estimate D2E/DX2                !
 ! D24   D(3,4,5,9)           -179.8385         estimate D2E/DX2                !
 ! D25   D(8,4,5,6)           -179.7397         estimate D2E/DX2                !
 ! D26   D(8,4,5,9)              0.2392         estimate D2E/DX2                !
 ! D27   D(3,4,8,10)            -0.04           estimate D2E/DX2                !
 ! D28   D(3,4,8,12)          -179.7156         estimate D2E/DX2                !
 ! D29   D(5,4,8,10)           179.882          estimate D2E/DX2                !
 ! D30   D(5,4,8,12)             0.2064         estimate D2E/DX2                !
 ! D31   D(4,5,6,1)              0.0136         estimate D2E/DX2                !
 ! D32   D(4,5,6,37)           179.9825         estimate D2E/DX2                !
 ! D33   D(9,5,6,1)           -179.9652         estimate D2E/DX2                !
 ! D34   D(9,5,6,37)             0.0037         estimate D2E/DX2                !
 ! D35   D(1,6,37,38)          -60.5786         estimate D2E/DX2                !
 ! D36   D(1,6,37,39)         -179.7885         estimate D2E/DX2                !
 ! D37   D(1,6,37,40)           60.9998         estimate D2E/DX2                !
 ! D38   D(5,6,37,38)          119.4526         estimate D2E/DX2                !
 ! D39   D(5,6,37,39)            0.2427         estimate D2E/DX2                !
 ! D40   D(5,6,37,40)         -118.969          estimate D2E/DX2                !
 ! D41   D(3,7,11,10)           -0.065          estimate D2E/DX2                !
 ! D42   D(3,7,11,13)          179.6119         estimate D2E/DX2                !
 ! D43   D(31,7,11,10)        -179.9149         estimate D2E/DX2                !
 ! D44   D(31,7,11,13)          -0.2379         estimate D2E/DX2                !
 ! D45   D(3,7,31,32)           -0.0519         estimate D2E/DX2                !
 ! D46   D(11,7,31,32)         179.7956         estimate D2E/DX2                !
 ! D47   D(4,8,10,11)            0.1086         estimate D2E/DX2                !
 ! D48   D(4,8,10,33)          179.2995         estimate D2E/DX2                !
 ! D49   D(12,8,10,11)         179.7854         estimate D2E/DX2                !
 ! D50   D(12,8,10,33)          -1.0238         estimate D2E/DX2                !
 ! D51   D(8,10,11,7)           -0.0557         estimate D2E/DX2                !
 ! D52   D(8,10,11,13)        -179.7249         estimate D2E/DX2                !
 ! D53   D(33,10,11,7)        -179.2579         estimate D2E/DX2                !
 ! D54   D(33,10,11,13)          1.073          estimate D2E/DX2                !
 ! D55   D(8,10,33,34)        -112.9268         estimate D2E/DX2                !
 ! D56   D(8,10,33,35)           7.2273         estimate D2E/DX2                !
 ! D57   D(8,10,33,36)         127.5471         estimate D2E/DX2                !
 ! D58   D(11,10,33,34)         66.2924         estimate D2E/DX2                !
 ! D59   D(11,10,33,35)       -173.5535         estimate D2E/DX2                !
 ! D60   D(11,10,33,36)        -53.2337         estimate D2E/DX2                !
 ! D61   D(1,14,15,16)          -0.0646         estimate D2E/DX2                !
 ! D62   D(1,14,15,17)         179.719          estimate D2E/DX2                !
 ! D63   D(14,15,17,18)       -179.3012         estimate D2E/DX2                !
 ! D64   D(14,15,17,19)          0.5352         estimate D2E/DX2                !
 ! D65   D(16,15,17,18)          0.4765         estimate D2E/DX2                !
 ! D66   D(16,15,17,19)       -179.6871         estimate D2E/DX2                !
 ! D67   D(15,17,18,20)        179.8849         estimate D2E/DX2                !
 ! D68   D(15,17,18,21)          0.0252         estimate D2E/DX2                !
 ! D69   D(19,17,18,20)          0.044          estimate D2E/DX2                !
 ! D70   D(19,17,18,21)       -179.8157         estimate D2E/DX2                !
 ! D71   D(15,17,19,22)       -179.8891         estimate D2E/DX2                !
 ! D72   D(15,17,19,23)          0.036          estimate D2E/DX2                !
 ! D73   D(18,17,19,22)         -0.0557         estimate D2E/DX2                !
 ! D74   D(18,17,19,23)        179.8694         estimate D2E/DX2                !
 ! D75   D(17,18,20,24)         -0.0741         estimate D2E/DX2                !
 ! D76   D(17,18,20,25)        179.9651         estimate D2E/DX2                !
 ! D77   D(21,18,20,24)        179.7861         estimate D2E/DX2                !
 ! D78   D(21,18,20,25)         -0.1747         estimate D2E/DX2                !
 ! D79   D(17,19,22,24)          0.0982         estimate D2E/DX2                !
 ! D80   D(17,19,22,26)       -179.8945         estimate D2E/DX2                !
 ! D81   D(23,19,22,24)       -179.8266         estimate D2E/DX2                !
 ! D82   D(23,19,22,26)          0.1807         estimate D2E/DX2                !
 ! D83   D(18,20,24,22)          0.113          estimate D2E/DX2                !
 ! D84   D(18,20,24,27)        177.5037         estimate D2E/DX2                !
 ! D85   D(25,20,24,22)       -179.9262         estimate D2E/DX2                !
 ! D86   D(25,20,24,27)         -2.5355         estimate D2E/DX2                !
 ! D87   D(19,22,24,20)         -0.1256         estimate D2E/DX2                !
 ! D88   D(19,22,24,27)       -177.5181         estimate D2E/DX2                !
 ! D89   D(26,22,24,20)        179.8671         estimate D2E/DX2                !
 ! D90   D(26,22,24,27)          2.4746         estimate D2E/DX2                !
 ! D91   D(20,24,27,28)         22.8438         estimate D2E/DX2                !
 ! D92   D(20,24,27,29)        159.5093         estimate D2E/DX2                !
 ! D93   D(22,24,27,28)       -159.8292         estimate D2E/DX2                !
 ! D94   D(22,24,27,29)        -23.1638         estimate D2E/DX2                !
 --------------------------------------------------------------------------------
 Trust Radius=3.00D-01 FncErr=1.00D-07 GrdErr=1.00D-06 EigMax=2.50D+02 EigMin=1.00D-04
 Number of steps in this run=    214 maximum allowed number of steps=    240.
 GradGradGradGradGradGradGradGradGradGradGradGradGradGradGradGradGradGrad

                          Input orientation:                          
 ---------------------------------------------------------------------
 Center     Atomic      Atomic             Coordinates (Angstroms)
 Number     Number       Type             X           Y           Z
 ---------------------------------------------------------------------
      1          6           0        0.760460    0.227510    0.013540
      2          6           0       -0.052300   -0.969450    0.018760
      3          6           0       -1.495490   -0.831640    0.010690
      4          6           0       -2.081480    0.450330   -0.000840
      5          6           0       -1.237230    1.617690   -0.001070
      6          6           0        0.104750    1.520360    0.005830
      7          6           0       -2.329410   -1.977450    0.010880
      8          6           0       -3.474060    0.578660   -0.013570
      9          1           0       -1.700770    2.594350   -0.007310
     10          6           0       -4.259330   -0.555980   -0.015520
     11          6           0       -3.706160   -1.831530   -0.002920
     12          1           0       -3.934400    1.556990   -0.027110
     13          1           0       -4.328820   -2.716530   -0.008980
     14          7           0        2.091780    0.200410    0.011730
     15          7           0        2.732410   -0.907480    0.016650
     16          1           0        2.181900   -1.777780    0.023090
     17          6           0        4.139730   -0.954070    0.008970
     18          6           0        4.749360   -2.205260    0.000170
     19          6           0        4.924100    0.195880    0.006560
     20          6           0        6.127560   -2.309540   -0.010010
     21          1           0        4.143300   -3.104060   -0.001020
     22          6           0        6.301060    0.088980   -0.003370
     23          1           0        4.453520    1.168740    0.011240
     24          6           0        6.930000   -1.163380   -0.013190
     25          1           0        6.591520   -3.288840   -0.016230
     26          1           0        6.905250    0.988870   -0.003450
     27          7           0        8.310500   -1.263220    0.028410
     28          1           0        8.705890   -2.134510   -0.291860
     29          1           0        8.828390   -0.458630   -0.291680
     30          8           0        0.483530   -2.116580    0.028140
     31          8           0       -1.815980   -3.217940    0.021150
     32          1           0       -0.832140   -3.119860    0.026760
     33         16           0       -6.055570   -0.402050   -0.012760
     34          8           0       -6.491920   -0.926120    1.301250
     35          8           0       -6.337300    1.037810   -0.187430
     36          8           0       -6.522760   -1.231640   -1.145280
     37         16           0        1.056280    3.061880    0.004240
     38          8           0        1.861630    3.052570    1.244170
     39          8           0        0.035730    4.133370    0.001040
     40          8           0        1.864920    3.048450   -1.233540
 ---------------------------------------------------------------------
                    Distance matrix (angstroms):
                    1          2          3          4          5
     1  C    0.000000
     2  C    1.446831   0.000000
     3  C    2.492211   1.449777   0.000000
     4  C    2.850698   2.476637   1.409597   0.000000
     5  C    2.433840   2.845654   2.462936   1.440655   0.000000
     6  C    1.449647   2.494792   2.844766   2.434052   1.345523
     7  C    3.795939   2.490252   1.417146   2.440435   3.757397
     8  C    4.249141   3.755813   2.429871   1.398538   2.466404
     9  H    3.414677   3.926678   3.432182   2.177568   1.081098
    10  C    5.080649   4.227438   2.777677   2.399147   3.722652
    11  C    4.918395   3.754244   2.426320   2.801156   4.241785
    12  H    4.879639   4.632030   3.413981   2.158402   2.697979
    13  H    5.879511   4.619706   3.403080   3.883247   5.323857
    14  N    1.331597   2.442478   3.732778   4.180756   3.618170
    15  N    2.275258   2.785400   4.228584   5.001749   4.704768
    16  H    2.458001   2.375935   3.797174   4.810557   4.818739
    17  C    3.579891   4.192070   5.636550   6.377765   5.960348
    18  C    4.672245   4.958176   6.394145   7.328884   7.103113
    19  C    4.163766   5.111037   6.501304   7.010203   6.323258
    20  C    5.936576   6.323554   7.765018   8.660560   8.346457
    21  H    4.747966   4.707442   6.079472   7.168094   7.158563
    22  C    5.542357   6.440959   7.850728   8.390325   7.691734
    23  H    3.811117   4.987417   6.276324   6.574381   5.708445
    24  C    6.324438   6.985066   8.432052   9.154834   8.627754
    25  H    6.809322   7.037126   8.452117   9.444711   9.239242
    26  H    6.191801   7.227933   8.595748   9.002852   8.166725
    27  N    7.695817   8.367964   9.815499  10.532348   9.972946
    28  H    8.294713   8.840800  10.288691  11.096551  10.631519
    29  H    8.102805   8.900785  10.335041  10.951532  10.281647
    30  O    2.360437   1.266139   2.359639   3.628931   4.111769
    31  O    4.302235   2.857670   2.407748   3.677931   4.870191
    32  H    3.706944   2.287461   2.382487   3.782574   4.754919
    33  S    6.845093   6.030107   4.580330   4.064491   5.224547
    34  O    7.455607   6.566229   5.161277   4.800212   5.981536
    35  O    7.146690   6.600972   5.193960   4.300227   5.136312
    36  O    7.517797   6.579558   5.173945   4.885052   6.112669
    37  S    2.849781   4.181003   4.655220   4.082371   2.710332
    38  O    3.272306   4.619676   5.280039   4.885675   3.634892
    39  O    3.972547   5.103610   5.195773   4.248219   2.819411
    40  O    3.276087   4.624663   5.281625   4.883016   3.631720
                    6          7          8          9         10
     6  C    0.000000
     7  C    4.261436   0.000000
     8  C    3.700683   2.800807   0.000000
     9  H    2.100840   4.614854   2.684698   0.000000
    10  C    4.832891   2.397053   1.379877   4.058433   0.000000
    11  C    5.075261   1.384530   2.421363   4.859015   1.390390
    12  H    4.039450   3.881971   1.081307   2.462846   2.137839
    13  H    6.132536   2.131730   3.404249   5.925546   2.161677
    14  N    2.385496   4.928488   5.578735   4.484947   6.396051
    15  N    3.577586   5.173673   6.381990   5.649467   7.000644
    16  H    3.897766   4.515743   6.127319   5.847356   6.556198
    17  C    4.733273   6.549586   7.766567   6.833959   8.408525
    18  C    5.954215   7.082443   8.681880   8.039931   9.158431
    19  C    4.998038   7.572106   8.406903   7.045690   9.214183
    20  C    7.137410   8.463514  10.026606   9.237472  10.533873
    21  H    6.139641   6.570035   8.460896   8.162418   8.780496
    22  C    6.359496   8.874421   9.787383   8.384878  10.580074
    23  H    4.362965   7.477075   7.949549   6.317277   8.881955
    24  C    7.333953   9.295158  10.548894   9.413329  11.205804
    25  H    8.075090   9.016844  10.783017  10.167304  11.189704
    26  H    6.821244   9.699392  10.387418   8.754494  11.270961
    27  N    8.665054  10.663870  11.927705  10.728823  12.589787
    28  H    9.350203  11.040569  12.481583  11.434232  13.063883
    29  H    8.950241  11.264762  12.349234  10.966529  13.090995
    30  O    3.656679   2.816432   4.788379   5.192811   4.993205
    31  O    5.112820   1.342584   4.143019   5.813501   3.613493
    32  H    4.733904   1.883393   4.545373   5.779955   4.280292
    33  S    6.453336   4.045579   2.761519   5.286088   1.802826
    34  O    7.153980   4.482950   3.619474   6.087787   2.618271
    35  O    6.462988   5.019393   2.905028   4.894147   2.624439
    36  O    7.267905   4.413289   3.721898   6.259773   2.618394
    37  S    1.811545   6.071061   5.166302   2.796434   6.430009
    38  O    2.639655   6.662351   6.014294   3.803533   7.216274
    39  O    2.613926   6.552565   4.995478   2.320363   6.359074
    40  O    2.639942   6.663382   6.007736   3.797893   7.209849
                   11         12         13         14         15
    11  C    0.000000
    12  H    3.396284   0.000000
    13  H    1.082112   4.291721   0.000000
    14  N    6.143704   6.177108   7.052168   0.000000
    15  N    6.504570   7.107875   7.289327   1.279786   0.000000
    16  H    5.888363   6.966515   6.578127   1.980274   1.029818
    17  C    7.894813   8.455667   8.650025   2.350943   1.408112
    18  C    8.463776   9.463771   9.092570   3.584705   2.398456
    19  C    8.865206   8.962521   9.700459   2.832328   2.453775
    20  C    9.845334  10.779304  10.464298   4.752667   3.673354
    21  H    7.951941   9.326055   8.480982   3.889527   2.610725
    22  C   10.189839  10.340225  10.993874   4.210782   3.705212
    23  H    8.693802   8.396988   9.603397   2.552544   2.696839
    24  C   10.657130  11.199812  11.365444   5.026820   4.205489
    25  H   10.400295  11.587803  10.935329   5.694147   4.534830
    26  H   10.979831  10.854554  11.829385   4.877642   4.583573
    27  N   12.030132  12.565598  12.722654   6.388659   5.589434
    28  H   12.419109  13.170960  13.050764   7.020717   6.106001
    29  H   12.612818  12.923681  13.352536   6.775567   6.120254
    30  O    4.199491   5.745979   4.849745   2.820493   2.553334
    31  O    2.344247   5.223982   2.562554   5.191897   5.101578
    32  H    3.149709   5.612472   3.520046   4.424220   4.195324
    33  S    2.750134   2.887457   2.887646   8.169631   8.802552
    34  O    3.206413   3.804114   3.098592   8.752819   9.313367
    35  O    3.897442   2.463570   4.261561   8.472915   9.278224
    36  O    3.098078   3.965649   2.882611   8.809071   9.333452
    37  S    6.828349   5.212731   7.898702   3.043079   4.308757
    38  O    7.510656   6.119385   8.554214   3.115557   4.236397
    39  O    7.041434   4.732912   8.122224   4.437976   5.716861
    40  O    7.507700   6.108358   8.549676   3.116648   4.238502
                   16         17         18         19         20
    16  H    0.000000
    17  C    2.124099   0.000000
    18  C    2.602905   1.391834   0.000000
    19  C    3.378649   1.391987   2.407498   0.000000
    20  C    3.981469   2.406061   1.382177   2.779518   0.000000
    21  H    2.367845   2.150016   1.084044   3.391063   2.137436
    22  C    4.522496   2.399886   2.769715   1.381139   2.404796
    23  H    3.720535   2.145878   3.386963   1.080705   3.860219
    24  C    4.787824   2.798197   2.416792   2.423141   1.399144
    25  H    4.661502   3.385714   2.137281   3.863170   1.083663
    26  H    5.474038   3.379833   3.853614   2.133984   3.388857
    27  N    6.150166   4.182257   3.683742   3.687432   2.421051
    28  H    6.541322   4.725860   3.967923   4.452158   2.599589
    29  H    6.783441   4.724340   4.446839   3.969989   3.286288
    30  O    1.731841   3.836612   4.266843   5.006655   5.647456
    31  O    4.249366   6.371478   6.643015   7.555333   7.995373
    32  H    3.299338   5.423141   5.656001   6.642954   7.006811
    33  S    8.351636  10.210257  10.954371  10.995956  12.331552
    34  O    8.808755  10.709937  11.388388  11.543856  12.762622
    35  O    8.974889  10.666504  11.552780  11.294495  12.907710
    36  O    8.799685  10.728375  11.371925  11.592892  12.746815
    37  S    4.968872   5.063155   6.432855   4.813937   7.387167
    38  O    4.992584   4.771648   6.126279   4.367045   6.965870
    39  O    6.288738   6.536431   7.899148   6.276943   8.866882
    40  O    4.997208   4.768517   6.119110   4.362750   6.955227
                   21         22         23         24         25
    21  H    0.000000
    22  C    3.853756   0.000000
    23  H    4.284064   2.139976   0.000000
    24  C    3.395892   1.401452   3.401813   0.000000
    25  H    2.455230   3.390310   4.943867   2.152245   0.000000
    26  H    4.937656   1.083904   2.458363   2.152414   4.289218
    27  N    4.555778   2.422252   4.559717   1.384731   2.657070
    28  H    4.673526   3.287908   5.393142   2.043168   2.424667
    29  H    5.388214   2.601999   4.677561   2.044044   3.617948
    30  O    3.790763   6.221667   5.153099   6.516692   6.219623
    31  O    5.960409   8.764854   7.651777   8.984128   8.407882
    32  H    4.975543   7.821771   6.806654   8.005013   7.425707
    33  S   10.550732  12.366386  10.625861  13.007869  12.972373
    34  O   10.933766  12.899333  11.218521  13.488216  13.360187
    35  O   11.270883  12.675263  10.793443  13.449790  13.634647
    36  O   10.889450  12.942116  11.295047  13.500483  13.322581
    37  S    6.895545   6.028757   3.889122   7.235587   8.424426
    38  O    6.682859   5.481584   3.433195   6.711450   8.010864
    39  O    8.321810   7.457310   5.320339   8.694062   9.902923
    40  O    6.675590   5.472762   3.432730   6.699537   7.998990
                   26         27         28         29         30
    26  H    0.000000
    27  N    2.654741   0.000000
    28  H    3.616765   1.008986   0.000000
    29  H    2.424211   1.008976   1.680351   0.000000
    30  O    7.133253   7.873353   8.228604   8.513975   0.000000
    31  O    9.682856  10.313417  10.582133  11.000648   2.549664
    32  H    8.760695   9.329254   9.594084  10.025437   1.654557
    33  S   13.035245  14.391917  14.865397  14.886681   6.760260
    34  O   13.596087  14.860868  15.328785  15.409993   7.189917
    35  O   13.243918  14.829004  15.374397  15.239697   7.518003
    36  O   13.658180  14.879655  15.279243  15.394284   7.158780
    37  S    6.205472   8.445755   9.252388   8.537403   5.210092
    38  O    5.590484   7.854428   8.724052   7.951296   5.486164
    39  O    7.555012   9.879056  10.702513   9.923861   6.266030
    40  O    5.582107   7.856750   8.634159   7.853447   5.493415
                   31         32         33         34         35
    31  O    0.000000
    32  H    0.988733   0.000000
    33  S    5.089647   5.888317   0.000000
    34  O    5.362416   6.202413   1.480430   0.000000
    35  O    6.212668   6.902093   1.477524   2.469230   0.000000
    36  O    5.240203   6.109190   1.479557   2.465726   2.470278
    37  S    6.905527   6.463787   7.910595   8.634912   7.668026
    38  O    7.371559   6.843784   8.729051   9.252839   8.563363
    39  O    7.580963   7.305012   7.594351   8.360574   7.087561
    40  O    7.375020   6.849127   8.725275   9.594746   8.509608
                   36         37         38         39         40
    36  O    0.000000
    37  S    8.786214   0.000000
    38  O    9.714007   1.478547   0.000000
    39  O    8.550507   1.479738   2.459149   0.000000
    40  O    9.417013   1.478573   2.477716   2.459100   0.000000
 Stoichiometry    C16H11N3O8S2(2-)
 Framework group  C1[X(C16H11N3O8S2)]
 Deg. of freedom   114
 Full point group                 C1      NOp   1
 Largest Abelian subgroup         C1      NOp   1
 Largest concise Abelian subgroup C1      NOp   1
                         Standard orientation:                         
 ---------------------------------------------------------------------
 Center     Atomic      Atomic             Coordinates (Angstroms)
 Number     Number       Type             X           Y           Z
 ---------------------------------------------------------------------
      1          6           0        0.760460    0.227510    0.013539
      2          6           0       -0.052300   -0.969450    0.018759
      3          6           0       -1.495490   -0.831640    0.010689
      4          6           0       -2.081480    0.450330   -0.000841
      5          6           0       -1.237230    1.617690   -0.001071
      6          6           0        0.104750    1.520360    0.005829
      7          6           0       -2.329410   -1.977450    0.010879
      8          6           0       -3.474060    0.578660   -0.013571
      9          1           0       -1.700770    2.594350   -0.007311
     10          6           0       -4.259330   -0.555980   -0.015521
     11          6           0       -3.706160   -1.831530   -0.002921
     12          1           0       -3.934400    1.556990   -0.027111
     13          1           0       -4.328820   -2.716530   -0.008981
     14          7           0        2.091780    0.200410    0.011729
     15          7           0        2.732410   -0.907480    0.016649
     16          1           0        2.181900   -1.777780    0.023089
     17          6           0        4.139730   -0.954070    0.008969
     18          6           0        4.749360   -2.205260    0.000169
     19          6           0        4.924100    0.195880    0.006559
     20          6           0        6.127560   -2.309540   -0.010011
     21          1           0        4.143300   -3.104060   -0.001021
     22          6           0        6.301060    0.088980   -0.003371
     23          1           0        4.453520    1.168740    0.011239
     24          6           0        6.930000   -1.163380   -0.013191
     25          1           0        6.591520   -3.288840   -0.016231
     26          1           0        6.905250    0.988870   -0.003451
     27          7           0        8.310500   -1.263220    0.028409
     28          1           0        8.705890   -2.134510   -0.291861
     29          1           0        8.828390   -0.458630   -0.291681
     30          8           0        0.483530   -2.116580    0.028139
     31          8           0       -1.815980   -3.217940    0.021149
     32          1           0       -0.832140   -3.119860    0.026759
     33         16           0       -6.055570   -0.402050   -0.012761
     34          8           0       -6.491920   -0.926120    1.301249
     35          8           0       -6.337300    1.037810   -0.187431
     36          8           0       -6.522760   -1.231640   -1.145281
     37         16           0        1.056280    3.061880    0.004239
     38          8           0        1.861630    3.052570    1.244169
     39          8           0        0.035730    4.133370    0.001039
     40          8           0        1.864920    3.048450   -1.233541
 ---------------------------------------------------------------------
 Rotational constants (GHZ):           0.3000367           0.0640037           0.0538521
 Standard basis: 6-311++G(d,p) (5D, 7F)
 There are   760 symmetry adapted cartesian basis functions of A   symmetry.
 There are   731 symmetry adapted basis functions of A   symmetry.
   731 basis functions,  1171 primitive gaussians,   760 cartesian basis functions
   113 alpha electrons      113 beta electrons
       nuclear repulsion energy      3038.8520646065 Hartrees.
 NAtoms=   40 NActive=   40 NUniq=   40 SFac= 1.00D+00 NAtFMM=   60 NAOKFM=F Big=F
 Integral buffers will be    131072 words long.
 Raffenetti 2 integral format.
 Two-electron integral symmetry is turned on.
 ------------------------------------------------------------------------------
 Polarizable Continuum Model (PCM)
 =================================
 Model                : PCM.
 Atomic radii         : UFF (Universal Force Field).
 Polarization charges : Total charges.
 Charge compensation  : None.
 Solution method      : On-the-fly selection.
 Cavity type          : Scaled VdW (van der Waals Surface) (Alpha=1.100).
 Cavity algorithm     : GePol (No added spheres)
                        Default sphere list used, NSphG=   40.
                        Lebedev-Laikov grids with approx.  5.0 points / Ang**2.
                        Smoothing algorithm: York/Karplus (Gamma=1.0000).
                        Polarization charges: spherical gaussians, with
                                              point-specific exponents (IZeta= 3).
                        Self-potential: point-specific (ISelfS= 7).
                        Self-field    : sphere-specific E.n sum rule (ISelfD= 2).
 1st derivatives      : Analytical E(r).r(x)/FMM algorithm (CHGder, D1EAlg=3).
                        Cavity 1st derivative terms included.
 Solvent              : Water, Eps=  78.355300 Eps(inf)=   1.777849
 ------------------------------------------------------------------------------
 One-electron integrals computed using PRISM.
 PrsmSu:  requested number of processors reduced to:  23 ShMem   1 Linda.
 NBasis=   731 RedAO= T EigKep=  1.33D-06  NBF=   731
 NBsUse=   721 1.00D-06 EigRej=  8.24D-07 NBFU=   721
 ExpMin= 3.60D-02 ExpMax= 9.34D+04 ExpMxC= 3.17D+03 IAcc=3 IRadAn=         5 AccDes= 0.00D+00
 Harris functional with IExCor=20419 and IRadAn=       5 diagonalized for initial guess.
 HarFok:  IExCor=20419 AccDes= 0.00D+00 IRadAn=         5 IDoV= 1 UseB2=F ITyADJ=14
 ICtDFT=  3500011 ScaDFX=  1.000000  1.000000  1.000000  1.000000
 FoFCou: FMM=F IPFlag=           0 FMFlag=      100000 FMFlg1=           0
         NFxFlg=           0 DoJE=T BraDBF=F KetDBF=T FulRan=T
         wScrn=  0.000000 ICntrl=       500 IOpCl=  0 I1Cent=   200000004 NGrid=           0
         NMat0=    1 NMatS0=      1 NMatT0=    0 NMatD0=    1 NMtDS0=    0 NMtDT0=    0
 Petite list used in FoFCou.
 Requested convergence on RMS density matrix=1.00D-08 within 128 cycles.
 Requested convergence on MAX density matrix=1.00D-06.
 Requested convergence on             energy=1.00D-06.
 No special actions if energy rises.
 CoulSu:  requested number of processors reduced to:  32 ShMem   1 Linda.
 Inv3:  Mode=1 IEnd=    36289452.
 Iteration    1 A*A^-1 deviation from unit magnitude is 3.33D-15 for   3319.
 Iteration    1 A*A^-1 deviation from orthogonality  is 2.00D-15 for   3386   1241.
 Iteration    1 A^-1*A deviation from unit magnitude is 3.44D-15 for   3319.
 Iteration    1 A^-1*A deviation from orthogonality  is 2.34D-15 for   2307   2127.
 CoulSu:  requested number of processors reduced to:  32 ShMem   1 Linda.
 CoulSu:  requested number of processors reduced to:  32 ShMem   1 Linda.
 Error on total polarization charges =  0.02670
 SCF Done:  E(RCAM-B3LYP) =  -2178.83482833     A.U. after   17 cycles
            NFock= 17  Conv=0.55D-08     -V/T= 2.0023

 **********************************************************************

            Population analysis using the SCF Density.

 **********************************************************************

 Orbital symmetries:
       Occupied  (A) (A) (A) (A) (A) (A) (A) (A) (A) (A) (A) (A)
                 (A) (A) (A) (A) (A) (A) (A) (A) (A) (A) (A) (A)
                 (A) (A) (A) (A) (A) (A) (A) (A) (A) (A) (A) (A)
                 (A) (A) (A) (A) (A) (A) (A) (A) (A) (A) (A) (A)
                 (A) (A) (A) (A) (A) (A) (A) (A) (A) (A) (A) (A)
                 (A) (A) (A) (A) (A) (A) (A) (A) (A) (A) (A) (A)
                 (A) (A) (A) (A) (A) (A) (A) (A) (A) (A) (A) (A)
                 (A) (A) (A) (A) (A) (A) (A) (A) (A) (A) (A) (A)
                 (A) (A) (A) (A) (A) (A) (A) (A) (A) (A) (A) (A)
                 (A) (A) (A) (A) (A)
       Virtual   (A) (A) (A) (A) (A) (A) (A) (A) (A) (A) (A) (A)
                 (A) (A) (A) (A) (A) (A) (A) (A) (A) (A) (A) (A)
                 (A) (A) (A) (A) (A) (A) (A) (A) (A) (A) (A) (A)
                 (A) (A) (A) (A) (A) (A) (A) (A) (A) (A) (A) (A)
                 (A) (A) (A) (A) (A) (A) (A) (A) (A) (A) (A) (A)
                 (A) (A) (A) (A) (A) (A) (A) (A) (A) (A) (A) (A)
                 (A) (A) (A) (A) (A) (A) (A) (A) (A) (A) (A) (A)
                 (A) (A) (A) (A) (A) (A) (A) (A) (A) (A) (A) (A)
                 (A) (A) (A) (A) (A) (A) (A) (A) (A) (A) (A) (A)
                 (A) (A) (A) (A) (A) (A) (A) (A) (A) (A) (A) (A)
                 (A) (A) (A) (A) (A) (A) (A) (A) (A) (A) (A) (A)
                 (A) (A) (A) (A) (A) (A) (A) (A) (A) (A) (A) (A)
                 (A) (A) (A) (A) (A) (A) (A) (A) (A) (A) (A) (A)
                 (A) (A) (A) (A) (A) (A) (A) (A) (A) (A) (A) (A)
                 (A) (A) (A) (A) (A) (A) (A) (A) (A) (A) (A) (A)
                 (A) (A) (A) (A) (A) (A) (A) (A) (A) (A) (A) (A)
                 (A) (A) (A) (A) (A) (A) (A) (A) (A) (A) (A) (A)
                 (A) (A) (A) (A) (A) (A) (A) (A) (A) (A) (A) (A)
                 (A) (A) (A) (A) (A) (A) (A) (A) (A) (A) (A) (A)
                 (A) (A) (A) (A) (A) (A) (A) (A) (A) (A) (A) (A)
                 (A) (A) (A) (A) (A) (A) (A) (A) (A) (A) (A) (A)
                 (A) (A) (A) (A) (A) (A) (A) (A) (A) (A) (A) (A)
                 (A) (A) (A) (A) (A) (A) (A) (A) (A) (A) (A) (A)
                 (A) (A) (A) (A) (A) (A) (A) (A) (A) (A) (A) (A)
                 (A) (A) (A) (A) (A) (A) (A) (A) (A) (A) (A) (A)
                 (A) (A) (A) (A) (A) (A) (A) (A) (A) (A) (A) (A)
                 (A) (A) (A) (A) (A) (A) (A) (A) (A) (A) (A) (A)
                 (A) (A) (A) (A) (A) (A) (A) (A) (A) (A) (A) (A)
                 (A) (A) (A) (A) (A) (A) (A) (A) (A) (A) (A) (A)
                 (A) (A) (A) (A) (A) (A) (A) (A) (A) (A) (A) (A)
                 (A) (A) (A) (A) (A) (A) (A) (A) (A) (A) (A) (A)
                 (A) (A) (A) (A) (A) (A) (A) (A) (A) (A) (A) (A)
                 (A) (A) (A) (A) (A) (A) (A) (A) (A) (A) (A) (A)
                 (A) (A) (A) (A) (A) (A) (A) (A) (A) (A) (A) (A)
                 (A) (A) (A) (A) (A) (A) (A) (A) (A) (A) (A) (A)
                 (A) (A) (A) (A) (A) (A) (A) (A) (A) (A) (A) (A)
                 (A) (A) (A) (A) (A) (A) (A) (A) (A) (A) (A) (A)
                 (A) (A) (A) (A) (A) (A) (A) (A) (A) (A) (A) (A)
                 (A) (A) (A) (A) (A) (A) (A) (A) (A) (A) (A) (A)
                 (A) (A) (A) (A) (A) (A) (A) (A) (A) (A) (A) (A)
                 (A) (A) (A) (A) (A) (A) (A) (A) (A) (A) (A) (A)
                 (A) (A) (A) (A) (A) (A) (A) (A) (A) (A) (A) (A)
                 (A) (A) (A) (A) (A) (A) (A) (A) (A) (A) (A) (A)
                 (A) (A) (A) (A) (A) (A) (A) (A) (A) (A) (A) (A)
                 (A) (A) (A) (A) (A) (A) (A) (A) (A) (A) (A) (A)
                 (A) (A) (A) (A) (A) (A) (A) (A) (A) (A) (A) (A)
                 (A) (A) (A) (A) (A) (A) (A) (A) (A) (A) (A) (A)
                 (A) (A) (A) (A) (A) (A) (A) (A) (A) (A) (A) (A)
                 (A) (A) (A) (A) (A) (A) (A) (A) (A) (A) (A) (A)
                 (A) (A) (A) (A) (A) (A) (A) (A) (A) (A) (A) (A)
                 (A) (A) (A) (A) (A) (A) (A) (A)
 The electronic state is 1-A.
 Alpha  occ. eigenvalues --  -89.12237 -89.12158 -19.22434 -19.20083 -19.16274
 Alpha  occ. eigenvalues --  -19.16199 -19.16194 -19.15916 -19.15915 -19.15890
 Alpha  occ. eigenvalues --  -14.48526 -14.46390 -14.39636 -10.35158 -10.33288
 Alpha  occ. eigenvalues --  -10.30117 -10.29902 -10.29642 -10.28609 -10.28481
 Alpha  occ. eigenvalues --  -10.28254 -10.27102 -10.26413 -10.26029 -10.25972
 Alpha  occ. eigenvalues --  -10.25765 -10.25739 -10.25356 -10.25317  -8.18387
 Alpha  occ. eigenvalues --   -8.18255  -6.14744  -6.14734  -6.14660  -6.14610
 Alpha  occ. eigenvalues --   -6.14598  -6.14547  -1.20076  -1.19787  -1.17153
 Alpha  occ. eigenvalues --   -1.15838  -1.12346  -1.05732  -1.05492  -1.05316
 Alpha  occ. eigenvalues --   -1.05271  -1.01558  -0.98501  -0.96829  -0.93330
 Alpha  occ. eigenvalues --   -0.90088  -0.86271  -0.84991  -0.84479  -0.81614
 Alpha  occ. eigenvalues --   -0.78381  -0.75247  -0.74449  -0.71527  -0.69785
 Alpha  occ. eigenvalues --   -0.68742  -0.68035  -0.66128  -0.64590  -0.63216
 Alpha  occ. eigenvalues --   -0.60702  -0.60051  -0.58884  -0.58764  -0.58079
 Alpha  occ. eigenvalues --   -0.56493  -0.55876  -0.55211  -0.53363  -0.53030
 Alpha  occ. eigenvalues --   -0.52702  -0.52299  -0.52058  -0.51899  -0.51535
 Alpha  occ. eigenvalues --   -0.51275  -0.51007  -0.49991  -0.49407  -0.48071
 Alpha  occ. eigenvalues --   -0.47732  -0.47288  -0.46409  -0.45924  -0.44618
 Alpha  occ. eigenvalues --   -0.43187  -0.42381  -0.41699  -0.41184  -0.40581
 Alpha  occ. eigenvalues --   -0.40465  -0.40233  -0.39664  -0.39384  -0.37271
 Alpha  occ. eigenvalues --   -0.36857  -0.36313  -0.35931  -0.35669  -0.35039
 Alpha  occ. eigenvalues --   -0.32915  -0.32711  -0.32626  -0.31989  -0.31658
 Alpha  occ. eigenvalues --   -0.31271  -0.28473  -0.24651
 Alpha virt. eigenvalues --   -0.07015  -0.00013   0.01445   0.01767   0.02187
 Alpha virt. eigenvalues --    0.02359   0.03022   0.03499   0.03881   0.04742
 Alpha virt. eigenvalues --    0.05138   0.05358   0.05764   0.05942   0.06547
 Alpha virt. eigenvalues --    0.06698   0.07139   0.07389   0.07544   0.08513
 Alpha virt. eigenvalues --    0.08718   0.08773   0.09295   0.09505   0.09949
 Alpha virt. eigenvalues --    0.10718   0.10936   0.11168   0.11543   0.11719
 Alpha virt. eigenvalues --    0.11989   0.12415   0.12579   0.13131   0.13671
 Alpha virt. eigenvalues --    0.13828   0.14160   0.14330   0.14390   0.14557
 Alpha virt. eigenvalues --    0.14751   0.14983   0.15130   0.15375   0.15681
 Alpha virt. eigenvalues --    0.16155   0.16597   0.16781   0.16858   0.17023
 Alpha virt. eigenvalues --    0.17231   0.17712   0.17872   0.18128   0.18211
 Alpha virt. eigenvalues --    0.18373   0.18612   0.19102   0.19386   0.19695
 Alpha virt. eigenvalues --    0.20110   0.20327   0.20535   0.20664   0.21061
 Alpha virt. eigenvalues --    0.21377   0.21489   0.21771   0.21889   0.22297
 Alpha virt. eigenvalues --    0.22894   0.22997   0.23118   0.23338   0.23852
 Alpha virt. eigenvalues --    0.24255   0.24457   0.24778   0.25003   0.25229
 Alpha virt. eigenvalues --    0.25359   0.25590   0.26003   0.26594   0.26928
 Alpha virt. eigenvalues --    0.27125   0.27518   0.27636   0.27904   0.27989
 Alpha virt. eigenvalues --    0.28173   0.28618   0.28878   0.28935   0.29316
 Alpha virt. eigenvalues --    0.30033   0.30430   0.30562   0.30623   0.30727
 Alpha virt. eigenvalues --    0.31027   0.31274   0.31379   0.31920   0.32293
 Alpha virt. eigenvalues --    0.32538   0.32727   0.32855   0.33044   0.33279
 Alpha virt. eigenvalues --    0.33557   0.33635   0.33897   0.34355   0.34489
 Alpha virt. eigenvalues --    0.34805   0.34958   0.35024   0.35265   0.35587
 Alpha virt. eigenvalues --    0.35670   0.36076   0.36534   0.36846   0.37104
 Alpha virt. eigenvalues --    0.37333   0.37709   0.37917   0.38300   0.38631
 Alpha virt. eigenvalues --    0.39055   0.39356   0.39524   0.39864   0.40106
 Alpha virt. eigenvalues --    0.40884   0.41140   0.41540   0.41955   0.42565
 Alpha virt. eigenvalues --    0.42712   0.42780   0.43693   0.43823   0.44314
 Alpha virt. eigenvalues --    0.44533   0.44965   0.45757   0.45933   0.46136
 Alpha virt. eigenvalues --    0.46209   0.46865   0.47271   0.48029   0.49103
 Alpha virt. eigenvalues --    0.49439   0.49633   0.51192   0.51692   0.51975
 Alpha virt. eigenvalues --    0.53507   0.54267   0.55222   0.55725   0.56746
 Alpha virt. eigenvalues --    0.57376   0.57846   0.58012   0.58935   0.59533
 Alpha virt. eigenvalues --    0.59880   0.59999   0.60617   0.60668   0.61364
 Alpha virt. eigenvalues --    0.62162   0.62728   0.63572   0.64421   0.64670
 Alpha virt. eigenvalues --    0.65335   0.65452   0.65912   0.66230   0.67501
 Alpha virt. eigenvalues --    0.67581   0.68156   0.68166   0.68746   0.69129
 Alpha virt. eigenvalues --    0.69491   0.69861   0.70045   0.70802   0.71455
 Alpha virt. eigenvalues --    0.72416   0.72795   0.73372   0.73657   0.73852
 Alpha virt. eigenvalues --    0.74898   0.75318   0.76957   0.77797   0.78803
 Alpha virt. eigenvalues --    0.79168   0.79459   0.79905   0.80248   0.80785
 Alpha virt. eigenvalues --    0.82280   0.82502   0.82940   0.83601   0.84187
 Alpha virt. eigenvalues --    0.85320   0.86174   0.86814   0.87591   0.88600
 Alpha virt. eigenvalues --    0.89582   0.90106   0.90663   0.91519   0.92205
 Alpha virt. eigenvalues --    0.92473   0.93285   0.93566   0.94014   0.94597
 Alpha virt. eigenvalues --    0.95732   0.96419   0.96789   0.96849   0.97680
 Alpha virt. eigenvalues --    0.98029   0.98318   0.99161   0.99297   1.00005
 Alpha virt. eigenvalues --    1.00533   1.01082   1.02164   1.02279   1.03091
 Alpha virt. eigenvalues --    1.03396   1.04717   1.05240   1.05802   1.05985
 Alpha virt. eigenvalues --    1.06832   1.07203   1.07529   1.08057   1.08341
 Alpha virt. eigenvalues --    1.09084   1.09362   1.10443   1.11306   1.12267
 Alpha virt. eigenvalues --    1.12440   1.12914   1.13933   1.14186   1.14246
 Alpha virt. eigenvalues --    1.14887   1.15899   1.16495   1.17016   1.18351
 Alpha virt. eigenvalues --    1.18948   1.19914   1.20569   1.20799   1.21063
 Alpha virt. eigenvalues --    1.22476   1.23293   1.23426   1.23747   1.24212
 Alpha virt. eigenvalues --    1.24930   1.25086   1.25872   1.25912   1.26552
 Alpha virt. eigenvalues --    1.27462   1.28032   1.28282   1.28532   1.29126
 Alpha virt. eigenvalues --    1.29899   1.30249   1.30629   1.31241   1.32459
 Alpha virt. eigenvalues --    1.33144   1.33401   1.34201   1.34803   1.35020
 Alpha virt. eigenvalues --    1.35148   1.36040   1.37319   1.37368   1.38814
 Alpha virt. eigenvalues --    1.40946   1.44184   1.44878   1.45804   1.46857
 Alpha virt. eigenvalues --    1.48050   1.50213   1.50447   1.54322   1.54669
 Alpha virt. eigenvalues --    1.55961   1.56984   1.57517   1.58836   1.59588
 Alpha virt. eigenvalues --    1.60355   1.61064   1.61336   1.62424   1.62909
 Alpha virt. eigenvalues --    1.63222   1.63606   1.64706   1.65279   1.65685
 Alpha virt. eigenvalues --    1.66409   1.67100   1.68614   1.69209   1.69303
 Alpha virt. eigenvalues --    1.69948   1.70131   1.71091   1.72112   1.72771
 Alpha virt. eigenvalues --    1.73866   1.75065   1.76686   1.76777   1.77801
 Alpha virt. eigenvalues --    1.78198   1.80247   1.81727   1.84379   1.84686
 Alpha virt. eigenvalues --    1.84911   1.85525   1.86031   1.88860   1.89316
 Alpha virt. eigenvalues --    1.89637   1.91089   1.91999   1.92505   1.92592
 Alpha virt. eigenvalues --    1.93931   1.94447   1.96162   1.97678   1.98200
 Alpha virt. eigenvalues --    1.98905   1.99302   1.99763   2.00064   2.00739
 Alpha virt. eigenvalues --    2.01233   2.02357   2.03137   2.03409   2.04077
 Alpha virt. eigenvalues --    2.04393   2.05635   2.07402   2.07943   2.08888
 Alpha virt. eigenvalues --    2.10032   2.11721   2.13168   2.13556   2.14393
 Alpha virt. eigenvalues --    2.14854   2.15154   2.15578   2.16678   2.18063
 Alpha virt. eigenvalues --    2.18669   2.20017   2.20426   2.23342   2.25548
 Alpha virt. eigenvalues --    2.26111   2.29196   2.30969   2.31197   2.32406
 Alpha virt. eigenvalues --    2.33174   2.38259   2.38295   2.39981   2.42192
 Alpha virt. eigenvalues --    2.44037   2.44724   2.45994   2.48120   2.50688
 Alpha virt. eigenvalues --    2.54380   2.55001   2.57017   2.58367   2.60263
 Alpha virt. eigenvalues --    2.62605   2.64289   2.65815   2.66549   2.69442
 Alpha virt. eigenvalues --    2.69629   2.70066   2.71793   2.72842   2.74144
 Alpha virt. eigenvalues --    2.75034   2.76228   2.77273   2.77526   2.78430
 Alpha virt. eigenvalues --    2.79724   2.80281   2.80564   2.81538   2.83028
 Alpha virt. eigenvalues --    2.84456   2.85581   2.85792   2.86031   2.86327
 Alpha virt. eigenvalues --    2.86628   2.87321   2.87565   2.89176   2.90065
 Alpha virt. eigenvalues --    2.90695   2.91679   2.91796   2.91839   2.92044
 Alpha virt. eigenvalues --    2.92255   2.92556   2.93166   2.94208   2.94566
 Alpha virt. eigenvalues --    2.94899   2.95411   2.95588   2.95931   2.96566
 Alpha virt. eigenvalues --    2.97055   2.97680   2.98342   2.98637   2.99222
 Alpha virt. eigenvalues --    3.00041   3.00588   3.01474   3.03111   3.04442
 Alpha virt. eigenvalues --    3.05516   3.06970   3.07624   3.08415   3.09501
 Alpha virt. eigenvalues --    3.10761   3.12369   3.13958   3.14796   3.15190
 Alpha virt. eigenvalues --    3.17119   3.18400   3.19265   3.22124   3.23083
 Alpha virt. eigenvalues --    3.23817   3.23992   3.24935   3.25896   3.27319
 Alpha virt. eigenvalues --    3.27479   3.28280   3.29686   3.30313   3.31251
 Alpha virt. eigenvalues --    3.36987   3.37277   3.38251   3.40096   3.42008
 Alpha virt. eigenvalues --    3.43773   3.46648   3.47333   3.49140   3.50762
 Alpha virt. eigenvalues --    3.51074   3.53728   3.54759   3.58725   3.59161
 Alpha virt. eigenvalues --    3.61791   3.62780   3.66862   3.67568   3.68123
 Alpha virt. eigenvalues --    3.69747   3.70364   3.71308   3.73749   3.74283
 Alpha virt. eigenvalues --    3.78521   3.87032   3.87519   3.88741   3.89804
 Alpha virt. eigenvalues --    3.94548   4.00738   4.01541   4.06232   4.07707
 Alpha virt. eigenvalues --    4.08891   4.12909   4.19563   4.23680   4.26191
 Alpha virt. eigenvalues --    4.29067   4.35062   4.35579   4.43872   4.72079
 Alpha virt. eigenvalues --    4.84415   4.89453   4.93231   4.93464   5.02495
 Alpha virt. eigenvalues --    5.08411   5.09187   5.10418   5.12154   5.12214
 Alpha virt. eigenvalues --    5.13896   5.14372   5.14534   5.14883   5.16474
 Alpha virt. eigenvalues --    5.17138   5.18433   5.19633   5.20785   5.21582
 Alpha virt. eigenvalues --    5.22620   5.27162   5.36064   5.36636   5.39930
 Alpha virt. eigenvalues --    5.42428   5.48772   5.56817   5.64545   5.88901
 Alpha virt. eigenvalues --    5.91453   8.28851   8.32291  17.47692  17.48510
 Alpha virt. eigenvalues --   17.49339  17.52154  17.58010  17.61349  23.58450
 Alpha virt. eigenvalues --   23.70707  23.83054  23.95170  23.97931  24.00894
 Alpha virt. eigenvalues --   24.02317  24.02930  24.03068  24.09474  24.11386
 Alpha virt. eigenvalues --   24.15414  24.19205  24.23995  24.26606  24.27650
 Alpha virt. eigenvalues --   35.63715  35.70785  35.72184  49.93967  49.95323
 Alpha virt. eigenvalues --   49.96643  49.98240  50.02940  50.04068  50.05656
 Alpha virt. eigenvalues --   50.10198 189.30852 189.34770
          Condensed to atoms (all electrons):
               1          2          3          4          5          6
     1  C   11.458594  -0.463765   0.177825  -0.761037   1.544584  -3.647951
     2  C   -0.463765   9.404648   2.526484   0.879167   1.246617   0.601660
     3  C    0.177825   2.526484  16.283882   6.342040   2.266168  -2.019839
     4  C   -0.761037   0.879167   6.342040  19.130275   0.136460  -2.745211
     5  C    1.544584   1.246617   2.266168   0.136460  11.426744  -3.450763
     6  C   -3.647951   0.601660  -2.019839  -2.745211  -3.450763  17.972126
     7  C    0.095403  -4.200486  -3.666137  -1.671021  -1.836574  -0.819754
     8  C   -2.782478  -1.239435  -2.499851  -3.037457  -4.751746   5.076113
     9  H   -0.001723   0.069237   0.091744   0.201388   0.641147  -0.137606
    10  C   -1.290388  -1.140645  -4.921453  -7.694485   0.286789   0.934807
    11  C    1.315101  -1.270286  -8.085685  -3.222945  -1.482880  -0.974423
    12  H   -0.011240  -0.030159  -0.082966  -0.055420  -0.293880   0.154378
    13  H    0.008829  -0.012225  -0.225757   0.074339  -0.093898   0.009192
    14  N    0.658556  -0.549805  -0.130109  -0.306457  -0.211637  -0.420558
    15  N   -0.910717   0.457355  -0.054409   0.211094   0.102776   0.523397
    16  H   -0.108752   0.003846   0.105490  -0.011549   0.039260  -0.042489
    17  C   -0.528785  -0.189286  -0.365276  -0.140660  -0.246826   0.039474
    18  C   -0.111824   0.167060   0.142700   0.098624  -0.037784  -0.127420
    19  C    0.341616  -0.076625   0.017669  -0.048951   0.199875   0.146722
    20  C   -0.238472  -0.002509  -0.033313  -0.006805  -0.011318   0.038914
    21  H    0.002469   0.018241   0.001441   0.002286   0.000325   0.000550
    22  C    0.418958   0.042059   0.048316   0.002799   0.046363  -0.108587
    23  H   -0.034555   0.040818  -0.004139   0.010502  -0.003073   0.081664
    24  C    0.048587   0.016836   0.012559   0.005242   0.002201   0.050172
    25  H   -0.003753  -0.001788  -0.001066  -0.000456  -0.000150   0.000233
    26  H    0.003203  -0.002366   0.000353  -0.000268   0.000173  -0.007896
    27  N   -0.000796  -0.000031  -0.000058  -0.000013  -0.000006  -0.000118
    28  H   -0.000472   0.000000  -0.000062  -0.000010  -0.000015   0.000172
    29  H    0.000912   0.000124   0.000065   0.000019   0.000036  -0.000177
    30  O   -0.181196   0.409229  -0.114716  -0.014834  -0.014045   0.042497
    31  O    0.010853  -0.031277   0.186724   0.038777   0.020994   0.007383
    32  H   -0.013605   0.006207  -0.101095  -0.010873  -0.013204   0.016662
    33  S   -0.018727  -0.033490  -0.238227  -1.055395   0.406824  -0.173808
    34  O    0.000630   0.003870   0.003895   0.045390  -0.000419  -0.005543
    35  O   -0.000687  -0.006627  -0.013452  -0.050898  -0.008282  -0.018853
    36  O    0.000642  -0.000740   0.003959   0.085826  -0.002194  -0.002487
    37  S    1.188839  -0.493283  -0.187904  -1.045923   0.078726  -4.132108
    38  O   -0.050896  -0.026023  -0.016983  -0.009384  -0.081558  -0.097773
    39  O    0.220262   0.003617   0.125659   0.005560   0.417424  -0.030311
    40  O   -0.052610  -0.026182  -0.014770  -0.006402  -0.072962  -0.104980
               7          8          9         10         11         12
     1  C    0.095403  -2.782478  -0.001723  -1.290388   1.315101  -0.011240
     2  C   -4.200486  -1.239435   0.069237  -1.140645  -1.270286  -0.030159
     3  C   -3.666137  -2.499851   0.091744  -4.921453  -8.085685  -0.082966
     4  C   -1.671021  -3.037457   0.201388  -7.694485  -3.222945  -0.055420
     5  C   -1.836574  -4.751746   0.641147   0.286789  -1.482880  -0.293880
     6  C   -0.819754   5.076113  -0.137606   0.934807  -0.974423   0.154378
     7  C   21.361302   0.054123  -0.043712  -3.493620   1.601141   0.076696
     8  C    0.054123  17.787548  -0.402405  -1.712601  -1.040049   0.662097
     9  H   -0.043712  -0.402405   0.553285   0.045727  -0.022242  -0.045514
    10  C   -3.493620  -1.712601   0.045727  27.693095  -0.400499  -0.028886
    11  C    1.601141  -1.040049  -0.022242  -0.400499  19.175743   0.031832
    12  H    0.076696   0.662097  -0.045514  -0.028886   0.031832   0.542360
    13  H   -0.234928   0.057602  -0.002680   0.092521   0.696758   0.011184
    14  N    0.081794   0.027373  -0.012105  -0.006964  -0.003333  -0.000451
    15  N   -0.224058   0.100958   0.013250   0.060063  -0.065321  -0.000272
    16  H   -0.120196  -0.006269   0.001757   0.026574  -0.042748  -0.000335
    17  C    0.014988  -0.079245  -0.004984  -0.022499   0.012399  -0.000103
    18  C   -0.038376   0.049396  -0.003311   0.003269  -0.018333   0.000416
    19  C    0.048036  -0.026508   0.005780  -0.003090   0.019731  -0.000320
    20  C   -0.005809  -0.001263  -0.000073  -0.000149  -0.000434   0.000007
    21  H    0.003365   0.000596  -0.000041  -0.000429   0.000734   0.000008
    22  C   -0.003486   0.002751  -0.000472  -0.000925   0.000074   0.000057
    23  H   -0.001656   0.005328   0.000627   0.002981  -0.000763  -0.000060
    24  C    0.002538  -0.000178   0.000388   0.000160   0.000225  -0.000015
    25  H   -0.000087  -0.000073  -0.000004  -0.000017   0.000019   0.000000
    26  H   -0.000115   0.000010  -0.000053  -0.000025  -0.000006   0.000002
    27  N   -0.000002  -0.000001  -0.000001  -0.000000  -0.000000   0.000000
    28  H    0.000008  -0.000004   0.000001  -0.000000   0.000001  -0.000000
    29  H   -0.000001   0.000006  -0.000001   0.000000  -0.000000   0.000000
    30  O   -0.188896  -0.006453  -0.001082   0.008323   0.015858   0.000270
    31  O    0.224013  -0.001766   0.000062  -0.040865  -0.496795   0.000495
    32  H    0.099801   0.019970  -0.000171  -0.028555   0.061818   0.000861
    33  S   -0.109231  -0.211985   0.036120  -1.474477   0.996988  -0.162483
    34  O   -0.152821   0.038435   0.001041   0.382780  -0.273895  -0.005612
    35  O    0.105323   0.254373   0.005176  -0.619383   0.354438  -0.031966
    36  O   -0.154877   0.035980   0.000174   0.384914  -0.348428   0.006885
    37  S   -0.275000  -0.045295  -0.194625  -0.383363  -0.102416   0.032697
    38  O   -0.004336  -0.030570  -0.001469  -0.009519  -0.000769   0.000777
    39  O    0.006698   0.046184  -0.057704  -0.020132   0.007371   0.006900
    40  O   -0.004971  -0.035336  -0.000213  -0.009524  -0.000862   0.000520
              13         14         15         16         17         18
     1  C    0.008829   0.658556  -0.910717  -0.108752  -0.528785  -0.111824
     2  C   -0.012225  -0.549805   0.457355   0.003846  -0.189286   0.167060
     3  C   -0.225757  -0.130109  -0.054409   0.105490  -0.365276   0.142700
     4  C    0.074339  -0.306457   0.211094  -0.011549  -0.140660   0.098624
     5  C   -0.093898  -0.211637   0.102776   0.039260  -0.246826  -0.037784
     6  C    0.009192  -0.420558   0.523397  -0.042489   0.039474  -0.127420
     7  C   -0.234928   0.081794  -0.224058  -0.120196   0.014988  -0.038376
     8  C    0.057602   0.027373   0.100958  -0.006269  -0.079245   0.049396
     9  H   -0.002680  -0.012105   0.013250   0.001757  -0.004984  -0.003311
    10  C    0.092521  -0.006964   0.060063   0.026574  -0.022499   0.003269
    11  C    0.696758  -0.003333  -0.065321  -0.042748   0.012399  -0.018333
    12  H    0.011184  -0.000451  -0.000272  -0.000335  -0.000103   0.000416
    13  H    0.506328   0.000455  -0.001038  -0.000656  -0.000241  -0.000030
    14  N    0.000455  12.918960  -6.497209   0.255702   1.408697  -1.294583
    15  N   -0.001038  -6.497209  14.682120   0.232330  -1.866356   1.126887
    16  H   -0.000656   0.255702   0.232330   0.619551  -0.379041  -0.100437
    17  C   -0.000241   1.408697  -1.866356  -0.379041  14.716413  -0.573492
    18  C   -0.000030  -1.294583   1.126887  -0.100437  -0.573492   6.839713
    19  C    0.000250   0.627628  -0.764882   0.113288  -0.829253  -1.189992
    20  C   -0.000034  -0.413264   0.102649  -0.222544   0.695990  -0.058437
    21  H    0.000048  -0.040964   0.010128  -0.023888  -0.109501   0.439246
    22  C    0.000043  -0.068456   0.356717   0.103487  -5.668169   0.939756
    23  H   -0.000038  -0.153749   0.181886  -0.001442  -0.122429   0.037298
    24  C    0.000005   0.050310   0.026929   0.064143  -0.489365  -0.227966
    25  H   -0.000001   0.004392  -0.008911  -0.000081   0.049845  -0.058089
    26  H    0.000000   0.004346  -0.011802  -0.001637   0.049022   0.014194
    27  N   -0.000000  -0.001548   0.002528  -0.000828  -0.005277   0.035182
    28  H   -0.000000   0.000308  -0.000948  -0.000480  -0.000364   0.015909
    29  H    0.000000  -0.000937   0.001796   0.000404  -0.006596  -0.005056
    30  O    0.000519   0.252095  -0.203257   0.003127   0.003937  -0.017725
    31  O   -0.029503   0.001563   0.002121   0.003753  -0.000853  -0.000351
    32  H    0.001085  -0.014083   0.005896  -0.027258   0.007390   0.009808
    33  S   -0.118528   0.000291   0.000384   0.001741  -0.000583  -0.000078
    34  O   -0.001426   0.000001  -0.000001   0.000028  -0.000001  -0.000000
    35  O    0.001682   0.000003  -0.000003  -0.000025   0.000002   0.000000
    36  O    0.016626   0.000000   0.000001   0.000030  -0.000003   0.000000
    37  S    0.000469   0.562160  -0.387310  -0.020668   0.491994   0.053875
    38  O    0.000011   0.014148   0.006954  -0.001506   0.053918   0.000120
    39  O    0.000160  -0.097011  -0.056920   0.003928  -0.065072  -0.002334
    40  O    0.000007   0.008756   0.013842  -0.001620   0.056738   0.002139
              19         20         21         22         23         24
     1  C    0.341616  -0.238472   0.002469   0.418958  -0.034555   0.048587
     2  C   -0.076625  -0.002509   0.018241   0.042059   0.040818   0.016836
     3  C    0.017669  -0.033313   0.001441   0.048316  -0.004139   0.012559
     4  C   -0.048951  -0.006805   0.002286   0.002799   0.010502   0.005242
     5  C    0.199875  -0.011318   0.000325   0.046363  -0.003073   0.002201
     6  C    0.146722   0.038914   0.000550  -0.108587   0.081664   0.050172
     7  C    0.048036  -0.005809   0.003365  -0.003486  -0.001656   0.002538
     8  C   -0.026508  -0.001263   0.000596   0.002751   0.005328  -0.000178
     9  H    0.005780  -0.000073  -0.000041  -0.000472   0.000627   0.000388
    10  C   -0.003090  -0.000149  -0.000429  -0.000925   0.002981   0.000160
    11  C    0.019731  -0.000434   0.000734   0.000074  -0.000763   0.000225
    12  H   -0.000320   0.000007   0.000008   0.000057  -0.000060  -0.000015
    13  H    0.000250  -0.000034   0.000048   0.000043  -0.000038   0.000005
    14  N    0.627628  -0.413264  -0.040964  -0.068456  -0.153749   0.050310
    15  N   -0.764882   0.102649   0.010128   0.356717   0.181886   0.026929
    16  H    0.113288  -0.222544  -0.023888   0.103487  -0.001442   0.064143
    17  C   -0.829253   0.695990  -0.109501  -5.668169  -0.122429  -0.489365
    18  C   -1.189992  -0.058437   0.439246   0.939756   0.037298  -0.227966
    19  C   10.015238   1.368430   0.007003  -2.307643   0.401226  -1.660958
    20  C    1.368430  12.439729  -0.064158  -5.348692  -0.051414  -2.449053
    21  H    0.007003  -0.064158   0.488522   0.071844  -0.000170   0.025658
    22  C   -2.307643  -5.348692   0.071844  15.558682   0.034803   1.993557
    23  H    0.401226  -0.051414  -0.000170   0.034803   0.514294  -0.031328
    24  C   -1.660958  -2.449053   0.025658   1.993557  -0.031328   9.246521
    25  H    0.044299   0.620905  -0.019856  -0.123875  -0.000681  -0.208849
    26  H    0.013753   0.003264   0.001515   0.375347  -0.024437  -0.124625
    27  N    0.059005  -0.023967  -0.000223  -0.107645   0.002708   0.017475
    28  H   -0.002034  -0.014817   0.001581   0.001712  -0.001353  -0.025207
    29  H   -0.013155  -0.006554  -0.000402   0.024055   0.003387  -0.024493
    30  O    0.005390  -0.003514  -0.004930  -0.001452   0.000547   0.000367
    31  O    0.000903  -0.000153  -0.000538   0.000088  -0.000010   0.000021
    32  H   -0.007790   0.003235   0.000807  -0.000938   0.000441   0.000079
    33  S    0.000140  -0.000006  -0.000018  -0.000008   0.000055   0.000003
    34  O    0.000000  -0.000000  -0.000000  -0.000000   0.000000   0.000000
    35  O   -0.000001   0.000000  -0.000000  -0.000000   0.000000  -0.000000
    36  O    0.000000   0.000000  -0.000000  -0.000000   0.000000   0.000000
    37  S   -0.319180   0.055976  -0.002420  -0.069900  -0.081636  -0.047677
    38  O   -0.033254   0.005961  -0.000130  -0.016184  -0.005706  -0.001581
    39  O    0.064488  -0.001375   0.000071   0.013383   0.000649   0.000433
    40  O   -0.037341   0.006544  -0.000128  -0.018488  -0.005944  -0.001537
              25         26         27         28         29         30
     1  C   -0.003753   0.003203  -0.000796  -0.000472   0.000912  -0.181196
     2  C   -0.001788  -0.002366  -0.000031   0.000000   0.000124   0.409229
     3  C   -0.001066   0.000353  -0.000058  -0.000062   0.000065  -0.114716
     4  C   -0.000456  -0.000268  -0.000013  -0.000010   0.000019  -0.014834
     5  C   -0.000150   0.000173  -0.000006  -0.000015   0.000036  -0.014045
     6  C    0.000233  -0.007896  -0.000118   0.000172  -0.000177   0.042497
     7  C   -0.000087  -0.000115  -0.000002   0.000008  -0.000001  -0.188896
     8  C   -0.000073   0.000010  -0.000001  -0.000004   0.000006  -0.006453
     9  H   -0.000004  -0.000053  -0.000001   0.000001  -0.000001  -0.001082
    10  C   -0.000017  -0.000025  -0.000000  -0.000000   0.000000   0.008323
    11  C    0.000019  -0.000006  -0.000000   0.000001  -0.000000   0.015858
    12  H    0.000000   0.000002   0.000000  -0.000000   0.000000   0.000270
    13  H   -0.000001   0.000000  -0.000000  -0.000000   0.000000   0.000519
    14  N    0.004392   0.004346  -0.001548   0.000308  -0.000937   0.252095
    15  N   -0.008911  -0.011802   0.002528  -0.000948   0.001796  -0.203257
    16  H   -0.000081  -0.001637  -0.000828  -0.000480   0.000404   0.003127
    17  C    0.049845   0.049022  -0.005277  -0.000364  -0.006596   0.003937
    18  C   -0.058089   0.014194   0.035182   0.015909  -0.005056  -0.017725
    19  C    0.044299   0.013753   0.059005  -0.002034  -0.013155   0.005390
    20  C    0.620905   0.003264  -0.023967  -0.014817  -0.006554  -0.003514
    21  H   -0.019856   0.001515  -0.000223   0.001581  -0.000402  -0.004930
    22  C   -0.123875   0.375347  -0.107645   0.001712   0.024055  -0.001452
    23  H   -0.000681  -0.024437   0.002708  -0.001353   0.003387   0.000547
    24  C   -0.208849  -0.124625   0.017475  -0.025207  -0.024493   0.000367
    25  H    0.499085  -0.000102  -0.008066  -0.003601   0.001708  -0.000070
    26  H   -0.000102   0.492211  -0.013999   0.003309  -0.004963  -0.000096
    27  N   -0.008066  -0.013999   6.664401   0.376809   0.380155  -0.000003
    28  H   -0.003601   0.003309   0.376809   0.412181  -0.035823   0.000005
    29  H    0.001708  -0.004963   0.380155  -0.035823   0.408623   0.000000
    30  O   -0.000070  -0.000096  -0.000003   0.000005   0.000000   8.345457
    31  O   -0.000001   0.000000  -0.000000   0.000000  -0.000000   0.014478
    32  H    0.000006   0.000004  -0.000001  -0.000001   0.000000   0.056299
    33  S   -0.000000  -0.000000  -0.000000  -0.000000   0.000000   0.001671
    34  O   -0.000000  -0.000000   0.000000   0.000000  -0.000000   0.000006
    35  O   -0.000000   0.000000  -0.000000  -0.000000   0.000000   0.000006
    36  O   -0.000000  -0.000000  -0.000000  -0.000000  -0.000000   0.000015
    37  S    0.001098   0.008416   0.000249   0.000042  -0.000286   0.006847
    38  O    0.000063   0.000330   0.000007   0.000005  -0.000034   0.000722
    39  O   -0.000010  -0.000063  -0.000000  -0.000001   0.000006  -0.000030
    40  O    0.000065   0.000121   0.000010   0.000005  -0.000028   0.000692
              31         32         33         34         35         36
     1  C    0.010853  -0.013605  -0.018727   0.000630  -0.000687   0.000642
     2  C   -0.031277   0.006207  -0.033490   0.003870  -0.006627  -0.000740
     3  C    0.186724  -0.101095  -0.238227   0.003895  -0.013452   0.003959
     4  C    0.038777  -0.010873  -1.055395   0.045390  -0.050898   0.085826
     5  C    0.020994  -0.013204   0.406824  -0.000419  -0.008282  -0.002194
     6  C    0.007383   0.016662  -0.173808  -0.005543  -0.018853  -0.002487
     7  C    0.224013   0.099801  -0.109231  -0.152821   0.105323  -0.154877
     8  C   -0.001766   0.019970  -0.211985   0.038435   0.254373   0.035980
     9  H    0.000062  -0.000171   0.036120   0.001041   0.005176   0.000174
    10  C   -0.040865  -0.028555  -1.474477   0.382780  -0.619383   0.384914
    11  C   -0.496795   0.061818   0.996988  -0.273895   0.354438  -0.348428
    12  H    0.000495   0.000861  -0.162483  -0.005612  -0.031966   0.006885
    13  H   -0.029503   0.001085  -0.118528  -0.001426   0.001682   0.016626
    14  N    0.001563  -0.014083   0.000291   0.000001   0.000003   0.000000
    15  N    0.002121   0.005896   0.000384  -0.000001  -0.000003   0.000001
    16  H    0.003753  -0.027258   0.001741   0.000028  -0.000025   0.000030
    17  C   -0.000853   0.007390  -0.000583  -0.000001   0.000002  -0.000003
    18  C   -0.000351   0.009808  -0.000078  -0.000000   0.000000   0.000000
    19  C    0.000903  -0.007790   0.000140   0.000000  -0.000001   0.000000
    20  C   -0.000153   0.003235  -0.000006  -0.000000   0.000000   0.000000
    21  H   -0.000538   0.000807  -0.000018  -0.000000  -0.000000  -0.000000
    22  C    0.000088  -0.000938  -0.000008  -0.000000  -0.000000  -0.000000
    23  H   -0.000010   0.000441   0.000055   0.000000   0.000000   0.000000
    24  C    0.000021   0.000079   0.000003   0.000000  -0.000000   0.000000
    25  H   -0.000001   0.000006  -0.000000  -0.000000  -0.000000  -0.000000
    26  H    0.000000   0.000004  -0.000000  -0.000000   0.000000  -0.000000
    27  N   -0.000000  -0.000001  -0.000000   0.000000  -0.000000  -0.000000
    28  H    0.000000  -0.000001  -0.000000   0.000000  -0.000000  -0.000000
    29  H   -0.000000   0.000000   0.000000  -0.000000   0.000000  -0.000000
    30  O    0.014478   0.056299   0.001671   0.000006   0.000006   0.000015
    31  O    8.215000   0.225455   0.000707   0.000177  -0.000018   0.000131
    32  H    0.225455   0.326031  -0.001806  -0.000311   0.000295  -0.000272
    33  S    0.000707  -0.001806  17.070796   0.171568   0.048299   0.096307
    34  O    0.000177  -0.000311   0.171568   8.617986  -0.210425  -0.233593
    35  O   -0.000018   0.000295   0.048299  -0.210425   8.842758  -0.216761
    36  O    0.000131  -0.000272   0.096307  -0.233593  -0.216761   8.730125
    37  S   -0.000064  -0.001401  -0.022641  -0.000251  -0.000895  -0.000148
    38  O   -0.000008  -0.000112  -0.000238  -0.000000  -0.000001  -0.000000
    39  O    0.000026  -0.000194  -0.000599  -0.000001  -0.000012  -0.000000
    40  O   -0.000005  -0.000127  -0.000206  -0.000000  -0.000001  -0.000000
              37         38         39         40
     1  C    1.188839  -0.050896   0.220262  -0.052610
     2  C   -0.493283  -0.026023   0.003617  -0.026182
     3  C   -0.187904  -0.016983   0.125659  -0.014770
     4  C   -1.045923  -0.009384   0.005560  -0.006402
     5  C    0.078726  -0.081558   0.417424  -0.072962
     6  C   -4.132108  -0.097773  -0.030311  -0.104980
     7  C   -0.275000  -0.004336   0.006698  -0.004971
     8  C   -0.045295  -0.030570   0.046184  -0.035336
     9  H   -0.194625  -0.001469  -0.057704  -0.000213
    10  C   -0.383363  -0.009519  -0.020132  -0.009524
    11  C   -0.102416  -0.000769   0.007371  -0.000862
    12  H    0.032697   0.000777   0.006900   0.000520
    13  H    0.000469   0.000011   0.000160   0.000007
    14  N    0.562160   0.014148  -0.097011   0.008756
    15  N   -0.387310   0.006954  -0.056920   0.013842
    16  H   -0.020668  -0.001506   0.003928  -0.001620
    17  C    0.491994   0.053918  -0.065072   0.056738
    18  C    0.053875   0.000120  -0.002334   0.002139
    19  C   -0.319180  -0.033254   0.064488  -0.037341
    20  C    0.055976   0.005961  -0.001375   0.006544
    21  H   -0.002420  -0.000130   0.000071  -0.000128
    22  C   -0.069900  -0.016184   0.013383  -0.018488
    23  H   -0.081636  -0.005706   0.000649  -0.005944
    24  C   -0.047677  -0.001581   0.000433  -0.001537
    25  H    0.001098   0.000063  -0.000010   0.000065
    26  H    0.008416   0.000330  -0.000063   0.000121
    27  N    0.000249   0.000007  -0.000000   0.000010
    28  H    0.000042   0.000005  -0.000001   0.000005
    29  H   -0.000286  -0.000034   0.000006  -0.000028
    30  O    0.006847   0.000722  -0.000030   0.000692
    31  O   -0.000064  -0.000008   0.000026  -0.000005
    32  H   -0.001401  -0.000112  -0.000194  -0.000127
    33  S   -0.022641  -0.000238  -0.000599  -0.000206
    34  O   -0.000251  -0.000000  -0.000001  -0.000000
    35  O   -0.000895  -0.000001  -0.000012  -0.000001
    36  O   -0.000148  -0.000000  -0.000000  -0.000000
    37  S   20.729822   0.516999  -1.036418   0.514142
    38  O    0.516999   8.702264  -0.297889  -0.225923
    39  O   -1.036418  -0.297889   9.385131  -0.296670
    40  O    0.514142  -0.225923  -0.296670   8.702604
 Mulliken charges:
               1
     1  C   -0.281433
     2  C   -0.100045
     3  C    0.440292
     4  C    0.626668
     5  C   -0.250272
     6  C   -0.627460
     7  C   -0.525081
     8  C   -0.307876
     9  H    0.265289
    10  C   -0.619508
    11  C   -0.437119
    12  H    0.221241
    13  H    0.242871
    14  N    0.345686
    15  N   -0.168645
    16  H    0.536007
    17  C    0.093453
    18  C   -0.109972
    19  C   -0.179493
    20  C   -0.383478
    21  H    0.191361
    22  C   -0.189934
    23  H    0.205370
    24  C   -0.271576
    25  H    0.217867
    26  H    0.222881
    27  N   -0.375946
    28  H    0.273141
    29  H    0.277210
    30  O   -0.416055
    31  O   -0.351518
    32  H    0.379647
    33  S    0.790643
    34  O   -0.381508
    35  O   -0.434066
    36  O   -0.402113
    37  S    0.608460
    38  O   -0.390436
    39  O   -0.345200
    40  O   -0.389354
 Sum of Mulliken charges =  -2.00000
 Mulliken charges with hydrogens summed into heavy atoms:
               1
     1  C   -0.281433
     2  C   -0.100045
     3  C    0.440292
     4  C    0.626668
     5  C    0.015016
     6  C   -0.627460
     7  C   -0.525081
     8  C   -0.086635
    10  C   -0.619508
    11  C   -0.194248
    14  N    0.345686
    15  N    0.367362
    17  C    0.093453
    18  C    0.081389
    19  C    0.025877
    20  C   -0.165610
    22  C    0.032947
    24  C   -0.271576
    27  N    0.174405
    30  O   -0.416055
    31  O    0.028129
    33  S    0.790643
    34  O   -0.381508
    35  O   -0.434066
    36  O   -0.402113
    37  S    0.608460
    38  O   -0.390436
    39  O   -0.345200
    40  O   -0.389354
 Electronic spatial extent (au):  <R**2>=          18236.4185
 Charge=             -2.0000 electrons
 Dipole moment (field-independent basis, Debye):
    X=             33.2162    Y=            -15.2351    Z=             -1.2346  Tot=             36.5643
 Quadrupole moment (field-independent basis, Debye-Ang):
   XX=           -367.5692   YY=           -259.3973   ZZ=           -208.5086
   XY=            -52.5109   XZ=            -11.0547   YZ=              1.5994
 Traceless Quadrupole moment (field-independent basis, Debye-Ang):
   XX=            -89.0775   YY=             19.0944   ZZ=             69.9831
   XY=            -52.5109   XZ=            -11.0547   YZ=              1.5994
 Octapole moment (field-independent basis, Debye-Ang**2):
  XXX=           1976.5549  YYY=           -250.5462  ZZZ=             -3.4072  XYY=             60.5176
  XXY=            -20.6937  XXZ=            -96.1307  XZZ=             18.6076  YZZ=            -14.1078
  YYZ=             -1.1859  XYZ=             14.3952
 Hexadecapole moment (field-independent basis, Debye-Ang**3):
 XXXX=         -25344.8740 YYYY=          -5128.7955 ZZZZ=           -478.1832 XXXY=          -1357.6481
 XXXZ=           -888.4921 YYYX=           -472.0132 YYYZ=              3.5520 ZZZX=              4.9405
 ZZZY=              1.3240 XXYY=          -4098.6005 XXZZ=          -4034.4629 YYZZ=           -877.6728
 XXYZ=            124.2424 YYXZ=            -44.5058 ZZXY=            -84.0720
 N-N= 3.038852064606D+03 E-N=-1.125568325598D+04  KE= 2.173761883622D+03
 PrsmSu:  requested number of processors reduced to:  25 ShMem   1 Linda.
 D1PCM: PCM CHGder 1st derivatives, ID1Alg=3 FixD1E=F DoIter=F DoCFld=F I1PDM=0.
 CoulSu:  requested number of processors reduced to:  34 ShMem   1 Linda.
 CoulSu:  requested number of processors reduced to:  34 ShMem   1 Linda.
 CoulSu:  requested number of processors reduced to:  25 ShMem   1 Linda.
 CoulSu:  requested number of processors reduced to:  26 ShMem   1 Linda.
 Calling FoFJK, ICntrl=      2127 FMM=F ISym2X=0 I1Cent= 0 IOpClX= 0 NMat=1 NMatS=1 NMatT=0.
 ***** Axes restored to original set *****
 -------------------------------------------------------------------
 Center     Atomic                   Forces (Hartrees/Bohr)
 Number     Number              X              Y              Z
 -------------------------------------------------------------------
      1        6           0.000006977   -0.000002284    0.000000255
      2        6           0.000004958   -0.000001659   -0.000002266
      3        6          -0.000006193    0.000006234    0.000000982
      4        6          -0.000003182    0.000004028   -0.000001781
      5        6           0.000004203   -0.000005143    0.000001377
      6        6          -0.000003724    0.000000916   -0.000000136
      7        6          -0.000007746   -0.000006530   -0.000000919
      8        6           0.000002593   -0.000007278   -0.000004190
      9        1          -0.000001351    0.000001672   -0.000001168
     10        6          -0.000000354    0.000006983    0.000000176
     11        6           0.000009596    0.000005204    0.000000785
     12        1          -0.000001028    0.000000658   -0.000000031
     13        1          -0.000003066   -0.000004591    0.000000070
     14        7          -0.000008250    0.000011492    0.000004384
     15        7          -0.000003149   -0.000014709   -0.000000743
     16        1           0.000005476    0.000004615   -0.000000579
     17        6          -0.000009370    0.000000720    0.000001666
     18        6           0.000003961    0.000005926    0.000002159
     19        6           0.000010270   -0.000000889   -0.000003519
     20        6           0.000005076   -0.000005259   -0.000000876
     21        1          -0.000001586   -0.000003267    0.000000333
     22        6          -0.000002944   -0.000001331    0.000003339
     23        1           0.000000973    0.000000373    0.000002593
     24        6          -0.000010923    0.000003101    0.000002763
     25        1          -0.000002346    0.000003414    0.000001266
     26        1          -0.000000256   -0.000000241    0.000000823
     27        7           0.000005607    0.000007173    0.000000037
     28        1           0.000003400   -0.000004172   -0.000000196
     29        1           0.000000765   -0.000000443    0.000003193
     30        8           0.000001436   -0.000001798   -0.000002175
     31        8           0.000005648   -0.000000969   -0.000000214
     32        1          -0.000002349   -0.000001341   -0.000001616
     33       16          -0.000003439   -0.000006779    0.000004457
     34        8           0.000000614    0.000001040   -0.000006858
     35        8           0.000000431    0.000001505   -0.000001010
     36        8           0.000002388    0.000000948   -0.000002762
     37       16          -0.000003174   -0.000001365    0.000002046
     38        8          -0.000003164    0.000000537   -0.000006132
     39        8           0.000004788    0.000000665   -0.000000426
     40        8          -0.000001566    0.000002845    0.000004893
 -------------------------------------------------------------------
 Cartesian Forces:  Max     0.000014709 RMS     0.000004183

 GradGradGradGradGradGradGradGradGradGradGradGradGradGradGradGradGradGrad
 Berny optimization.
 FormGI is forming the generalized inverse of G from B-inverse, IUseBI=4.
 Internal  Forces:  Max     0.000011020 RMS     0.000002564
 Search for a local minimum.
 Step number   1 out of a maximum of  214
 All quantities printed in internal units (Hartrees-Bohrs-Radians)
 Mixed Optimization -- En-DIIS/RFO-DIIS
 Second derivative matrix not updated -- first step.
 ITU=  0
     Eigenvalues ---    0.00230   0.00333   0.01328   0.01449   0.01457
     Eigenvalues ---    0.01515   0.01584   0.01633   0.01727   0.01823
     Eigenvalues ---    0.01875   0.01894   0.02001   0.02003   0.02042
     Eigenvalues ---    0.02092   0.02106   0.02120   0.02160   0.02189
     Eigenvalues ---    0.02204   0.02220   0.02234   0.02245   0.02253
     Eigenvalues ---    0.02271   0.02278   0.02285   0.02332   0.02451
     Eigenvalues ---    0.02597   0.02885   0.03934   0.12207   0.12450
     Eigenvalues ---    0.12551   0.12551   0.16000   0.16000   0.16000
     Eigenvalues ---    0.16000   0.16000   0.16000   0.16000   0.16000
     Eigenvalues ---    0.16000   0.16000   0.16000   0.22000   0.22000
     Eigenvalues ---    0.22963   0.23315   0.23498   0.23715   0.23995
     Eigenvalues ---    0.24972   0.24998   0.25000   0.25000   0.25000
     Eigenvalues ---    0.25000   0.25000   0.25000   0.25000   0.25000
     Eigenvalues ---    0.25000   0.25000   0.25000   0.25000   0.25000
     Eigenvalues ---    0.25000   0.25000   0.25228   0.25895   0.35510
     Eigenvalues ---    0.35527   0.35555   0.35740   0.35837   0.35862
     Eigenvalues ---    0.35909   0.36263   0.36708   0.38402   0.39181
     Eigenvalues ---    0.40409   0.41389   0.42251   0.42808   0.42917
     Eigenvalues ---    0.44302   0.44412   0.46143   0.46144   0.46170
     Eigenvalues ---    0.46308   0.46409   0.47387   0.47582   0.48248
     Eigenvalues ---    0.48510   0.48805   0.49725   0.54360   0.56630
     Eigenvalues ---    0.59130   0.73135   0.77548   0.83541   0.83798
     Eigenvalues ---    0.83866   0.84234   0.84244   0.84629
 RFO step:  Lambda=-1.01854745D-08 EMin= 2.30000000D-03
 Linear search not attempted -- first point.
 Iteration  1 RMS(Cart)=  0.00021087 RMS(Int)=  0.00000002
 Iteration  2 RMS(Cart)=  0.00000002 RMS(Int)=  0.00000000
 Variable       Old X    -DE/DX   Delta X   Delta X   Delta X     New X
                                 (Linear)    (Quad)   (Total)
    R1        2.73411   0.00000   0.00000   0.00000   0.00000   2.73412
    R2        2.73944   0.00000   0.00000   0.00001   0.00001   2.73945
    R3        2.51635  -0.00000   0.00000  -0.00001  -0.00001   2.51635
    R4        2.73968   0.00001   0.00000   0.00002   0.00002   2.73970
    R5        2.39266   0.00000   0.00000   0.00000   0.00000   2.39266
    R6        2.66375  -0.00000   0.00000   0.00000   0.00000   2.66375
    R7        2.67802   0.00000   0.00000   0.00001   0.00001   2.67803
    R8        2.72244  -0.00000   0.00000  -0.00000  -0.00000   2.72244
    R9        2.64285  -0.00000   0.00000  -0.00001  -0.00001   2.64285
   R10        2.54267  -0.00000   0.00000  -0.00000  -0.00000   2.54266
   R11        2.04298   0.00000   0.00000   0.00001   0.00001   2.04299
   R12        3.42332   0.00000   0.00000   0.00000   0.00000   3.42333
   R13        2.61638  -0.00000   0.00000  -0.00001  -0.00001   2.61637
   R14        2.53712   0.00000   0.00000   0.00001   0.00001   2.53712
   R15        2.60759  -0.00000   0.00000  -0.00001  -0.00001   2.60758
   R16        2.04337   0.00000   0.00000   0.00000   0.00000   2.04338
   R17        2.62746   0.00000   0.00000   0.00000   0.00000   2.62746
   R18        3.40685  -0.00000   0.00000  -0.00000  -0.00000   3.40685
   R19        2.04490   0.00001   0.00000   0.00001   0.00001   2.04491
   R20        2.41844   0.00001   0.00000   0.00002   0.00002   2.41846
   R21        1.94607  -0.00001   0.00000  -0.00002  -0.00002   1.94606
   R22        2.66095   0.00000   0.00000   0.00000   0.00000   2.66095
   R23        2.63019   0.00000   0.00000   0.00001   0.00001   2.63019
   R24        2.63047   0.00000   0.00000   0.00001   0.00001   2.63048
   R25        2.61194   0.00000   0.00000   0.00000   0.00000   2.61194
   R26        2.04855   0.00000   0.00000   0.00001   0.00001   2.04856
   R27        2.60997  -0.00000   0.00000  -0.00001  -0.00001   2.60997
   R28        2.04224  -0.00000   0.00000  -0.00000  -0.00000   2.04224
   R29        2.64400  -0.00000   0.00000  -0.00000  -0.00000   2.64400
   R30        2.04783  -0.00000   0.00000  -0.00001  -0.00001   2.04782
   R31        2.64836  -0.00000   0.00000  -0.00001  -0.00001   2.64835
   R32        2.04828  -0.00000   0.00000  -0.00000  -0.00000   2.04828
   R33        2.61676   0.00001   0.00000   0.00002   0.00002   2.61678
   R34        1.90671   0.00001   0.00000   0.00001   0.00001   1.90672
   R35        1.90669  -0.00000   0.00000  -0.00000  -0.00000   1.90669
   R36        1.86843  -0.00000   0.00000  -0.00001  -0.00001   1.86843
   R37        2.79761  -0.00001   0.00000  -0.00001  -0.00001   2.79760
   R38        2.79212   0.00000   0.00000   0.00000   0.00000   2.79212
   R39        2.79596  -0.00000   0.00000  -0.00000  -0.00000   2.79596
   R40        2.79405  -0.00001   0.00000  -0.00001  -0.00001   2.79404
   R41        2.79630  -0.00000   0.00000  -0.00000  -0.00000   2.79630
   R42        2.79410  -0.00000   0.00000  -0.00001  -0.00001   2.79409
    A1        2.07572  -0.00000   0.00000  -0.00000  -0.00000   2.07572
    A2        2.14695  -0.00000   0.00000  -0.00001  -0.00001   2.14694
    A3        2.06051   0.00000   0.00000   0.00002   0.00002   2.06053
    A4        2.07207  -0.00000   0.00000  -0.00000  -0.00000   2.07207
    A5        2.10811  -0.00000   0.00000  -0.00000  -0.00000   2.10811
    A6        2.10301   0.00000   0.00000   0.00000   0.00000   2.10301
    A7        2.09477  -0.00000   0.00000   0.00000   0.00000   2.09477
    A8        2.10473  -0.00000   0.00000  -0.00001  -0.00001   2.10472
    A9        2.08369   0.00000   0.00000   0.00001   0.00001   2.08370
   A10        2.08670  -0.00000   0.00000  -0.00000  -0.00000   2.08669
   A11        2.09148  -0.00000   0.00000  -0.00000  -0.00000   2.09147
   A12        2.10501   0.00000   0.00000   0.00001   0.00001   2.10502
   A13        2.12452   0.00000   0.00000   0.00001   0.00001   2.12453
   A14        2.07231  -0.00000   0.00000  -0.00001  -0.00001   2.07231
   A15        2.08635  -0.00000   0.00000  -0.00000  -0.00000   2.08635
   A16        2.11259   0.00000   0.00000  -0.00000  -0.00000   2.11259
   A17        2.11919   0.00000   0.00000   0.00001   0.00001   2.11920
   A18        2.05140  -0.00000   0.00000  -0.00001  -0.00001   2.05140
   A19        2.09431  -0.00000   0.00000  -0.00001  -0.00001   2.09430
   A20        2.12001   0.00000   0.00000   0.00000   0.00000   2.12001
   A21        2.06886   0.00000   0.00000   0.00001   0.00001   2.06887
   A22        2.08429   0.00000   0.00000   0.00000   0.00000   2.08429
   A23        2.10255  -0.00000   0.00000   0.00000   0.00000   2.10255
   A24        2.09633  -0.00000   0.00000  -0.00000  -0.00000   2.09633
   A25        2.12696  -0.00000   0.00000  -0.00000  -0.00000   2.12696
   A26        2.09070   0.00000   0.00000   0.00001   0.00001   2.09071
   A27        2.06544  -0.00000   0.00000  -0.00000  -0.00000   2.06543
   A28        2.08564   0.00000   0.00000   0.00001   0.00001   2.08564
   A29        2.07835  -0.00000   0.00000  -0.00000  -0.00000   2.07834
   A30        2.11919  -0.00000   0.00000  -0.00001  -0.00001   2.11918
   A31        2.11541  -0.00001   0.00000  -0.00004  -0.00004   2.11537
   A32        2.05333  -0.00000   0.00000   0.00000   0.00000   2.05333
   A33        2.12812   0.00001   0.00000   0.00002   0.00002   2.12814
   A34        2.10173  -0.00000   0.00000  -0.00002  -0.00002   2.10171
   A35        2.05730  -0.00000   0.00000  -0.00001  -0.00001   2.05729
   A36        2.13631   0.00001   0.00000   0.00003   0.00003   2.13634
   A37        2.08958  -0.00001   0.00000  -0.00002  -0.00002   2.08955
   A38        2.09973   0.00000   0.00000   0.00002   0.00002   2.09975
   A39        2.09493  -0.00000   0.00000  -0.00001  -0.00001   2.09493
   A40        2.08852  -0.00000   0.00000  -0.00001  -0.00001   2.08851
   A41        2.09192   0.00000   0.00000   0.00001   0.00001   2.09193
   A42        2.09244  -0.00000   0.00000   0.00000   0.00000   2.09245
   A43        2.09882  -0.00000   0.00000  -0.00001  -0.00001   2.09881
   A44        2.10608  -0.00000   0.00000  -0.00001  -0.00001   2.10607
   A45        2.08878  -0.00000   0.00000  -0.00000  -0.00000   2.08878
   A46        2.08832   0.00000   0.00000   0.00001   0.00001   2.08833
   A47        2.11371   0.00000   0.00000   0.00001   0.00001   2.11372
   A48        2.08458  -0.00000   0.00000  -0.00000  -0.00000   2.08458
   A49        2.08489  -0.00000   0.00000  -0.00000  -0.00000   2.08489
   A50        2.06535  -0.00000   0.00000  -0.00000  -0.00000   2.06535
   A51        2.10905   0.00000   0.00000   0.00001   0.00001   2.10906
   A52        2.10787  -0.00000   0.00000  -0.00001  -0.00001   2.10787
   A53        2.03018   0.00000   0.00000   0.00001   0.00001   2.03019
   A54        2.03162   0.00000   0.00000   0.00002   0.00002   2.03164
   A55        1.96792  -0.00000   0.00000   0.00000   0.00000   1.96792
   A56        1.86389   0.00000   0.00000   0.00001   0.00001   1.86390
   A57        1.83880   0.00000   0.00000   0.00001   0.00001   1.83881
   A58        1.84731  -0.00000   0.00000  -0.00001  -0.00001   1.84730
   A59        1.83959  -0.00000   0.00000  -0.00002  -0.00002   1.83957
   A60        1.97545   0.00000   0.00000   0.00000   0.00000   1.97545
   A61        1.96909   0.00000   0.00000   0.00001   0.00001   1.96910
   A62        1.97764   0.00000   0.00000  -0.00000  -0.00000   1.97764
   A63        1.85460   0.00000   0.00000   0.00000   0.00000   1.85460
   A64        1.82752   0.00001   0.00000   0.00004   0.00004   1.82756
   A65        1.85487   0.00000   0.00000   0.00002   0.00002   1.85489
   A66        1.96280  -0.00000   0.00000  -0.00001  -0.00001   1.96279
   A67        1.98678  -0.00000   0.00000  -0.00002  -0.00002   1.98676
   A68        1.96271  -0.00001   0.00000  -0.00002  -0.00002   1.96269
    D1        0.00424  -0.00000   0.00000  -0.00013  -0.00013   0.00411
    D2       -3.13920  -0.00000   0.00000  -0.00007  -0.00007  -3.13927
    D3       -3.13399  -0.00000   0.00000  -0.00015  -0.00015  -3.13414
    D4        0.00575  -0.00000   0.00000  -0.00008  -0.00008   0.00567
    D5       -0.00397   0.00000   0.00000   0.00007   0.00007  -0.00390
    D6        3.13819   0.00000   0.00000   0.00007   0.00007   3.13826
    D7        3.13443   0.00000   0.00000   0.00008   0.00008   3.13451
    D8       -0.00660   0.00000   0.00000   0.00009   0.00009  -0.00651
    D9       -0.00190   0.00000   0.00000   0.00007   0.00007  -0.00183
   D10       -3.14016   0.00000   0.00000   0.00006   0.00006  -3.14010
   D11       -0.00093   0.00000   0.00000   0.00012   0.00012  -0.00082
   D12        3.13788   0.00000   0.00000   0.00012   0.00012   3.13800
   D13       -3.14068   0.00000   0.00000   0.00005   0.00005  -3.14063
   D14       -0.00187   0.00000   0.00000   0.00006   0.00006  -0.00181
   D15       -0.00275  -0.00000   0.00000  -0.00003  -0.00003  -0.00278
   D16        3.13749  -0.00000   0.00000  -0.00003  -0.00003   3.13747
   D17        3.14159  -0.00000   0.00000  -0.00004  -0.00004   3.14155
   D18       -0.00135  -0.00000   0.00000  -0.00003  -0.00003  -0.00138
   D19       -3.13655  -0.00000   0.00000  -0.00001  -0.00001  -3.13656
   D20        0.00234  -0.00000   0.00000  -0.00001  -0.00001   0.00233
   D21        0.00227  -0.00000   0.00000  -0.00001  -0.00001   0.00227
   D22        3.14117  -0.00000   0.00000  -0.00000  -0.00000   3.14117
   D23        0.00319  -0.00000   0.00000  -0.00004  -0.00004   0.00315
   D24       -3.13877  -0.00000   0.00000  -0.00003  -0.00003  -3.13881
   D25       -3.13705  -0.00000   0.00000  -0.00004  -0.00004  -3.13709
   D26        0.00418  -0.00000   0.00000  -0.00004  -0.00004   0.00414
   D27       -0.00070   0.00000   0.00000   0.00004   0.00004  -0.00066
   D28       -3.13663   0.00000   0.00000   0.00002   0.00002  -3.13661
   D29        3.13953   0.00000   0.00000   0.00004   0.00004   3.13958
   D30        0.00360   0.00000   0.00000   0.00002   0.00002   0.00362
   D31        0.00024   0.00000   0.00000   0.00002   0.00002   0.00026
   D32        3.14129   0.00000   0.00000   0.00002   0.00002   3.14130
   D33       -3.14099   0.00000   0.00000   0.00001   0.00001  -3.14097
   D34        0.00006   0.00000   0.00000   0.00001   0.00001   0.00007
   D35       -1.05730   0.00000   0.00000   0.00010   0.00010  -1.05719
   D36       -3.13790  -0.00000   0.00000   0.00009   0.00009  -3.13781
   D37        1.06465  -0.00000   0.00000   0.00009   0.00009   1.06474
   D38        2.08484   0.00000   0.00000   0.00011   0.00011   2.08495
   D39        0.00424  -0.00000   0.00000   0.00010   0.00010   0.00433
   D40       -2.07640  -0.00000   0.00000   0.00009   0.00009  -2.07631
   D41       -0.00114   0.00000   0.00000   0.00004   0.00004  -0.00110
   D42        3.13482   0.00000   0.00000   0.00002   0.00002   3.13484
   D43       -3.14011   0.00000   0.00000   0.00003   0.00003  -3.14007
   D44       -0.00415   0.00000   0.00000   0.00001   0.00001  -0.00414
   D45       -0.00091  -0.00000   0.00000  -0.00004  -0.00004  -0.00094
   D46        3.13802  -0.00000   0.00000  -0.00003  -0.00003   3.13799
   D47        0.00190   0.00000   0.00000  -0.00001  -0.00001   0.00189
   D48        3.12937   0.00000   0.00000   0.00005   0.00005   3.12942
   D49        3.13785   0.00000   0.00000   0.00002   0.00002   3.13786
   D50       -0.01787   0.00000   0.00000   0.00008   0.00008  -0.01779
   D51       -0.00097  -0.00000   0.00000  -0.00003  -0.00003  -0.00100
   D52       -3.13679  -0.00000   0.00000  -0.00001  -0.00001  -3.13680
   D53       -3.12864  -0.00000   0.00000  -0.00009  -0.00009  -3.12873
   D54        0.01873  -0.00000   0.00000  -0.00007  -0.00007   0.01866
   D55       -1.97094  -0.00000   0.00000  -0.00042  -0.00042  -1.97136
   D56        0.12614  -0.00000   0.00000  -0.00041  -0.00041   0.12573
   D57        2.22612  -0.00000   0.00000  -0.00043  -0.00043   2.22569
   D58        1.15702  -0.00000   0.00000  -0.00036  -0.00036   1.15666
   D59       -3.02908   0.00000   0.00000  -0.00036  -0.00036  -3.02944
   D60       -0.92910  -0.00000   0.00000  -0.00037  -0.00037  -0.92947
   D61       -0.00113   0.00000   0.00000   0.00003   0.00003  -0.00110
   D62        3.13669   0.00000   0.00000   0.00001   0.00001   3.13670
   D63       -3.12940   0.00000   0.00000   0.00001   0.00001  -3.12938
   D64        0.00934   0.00000   0.00000   0.00001   0.00001   0.00935
   D65        0.00832  -0.00000   0.00000  -0.00000  -0.00000   0.00831
   D66       -3.13613  -0.00000   0.00000  -0.00001  -0.00001  -3.13614
   D67        3.13958  -0.00000   0.00000  -0.00002  -0.00002   3.13956
   D68        0.00044  -0.00000   0.00000  -0.00000  -0.00000   0.00044
   D69        0.00077  -0.00000   0.00000  -0.00002  -0.00002   0.00075
   D70       -3.13838   0.00000   0.00000   0.00000   0.00000  -3.13837
   D71       -3.13966  -0.00000   0.00000  -0.00001  -0.00001  -3.13967
   D72        0.00063   0.00000   0.00000   0.00004   0.00004   0.00067
   D73       -0.00097  -0.00000   0.00000  -0.00002  -0.00002  -0.00099
   D74        3.13931   0.00000   0.00000   0.00003   0.00003   3.13935
   D75       -0.00129   0.00000   0.00000   0.00003   0.00003  -0.00126
   D76        3.14098   0.00000   0.00000   0.00001   0.00001   3.14099
   D77        3.13786   0.00000   0.00000   0.00001   0.00001   3.13787
   D78       -0.00305  -0.00000   0.00000  -0.00001  -0.00001  -0.00306
   D79        0.00171   0.00000   0.00000   0.00004   0.00004   0.00175
   D80       -3.13975   0.00000   0.00000   0.00001   0.00001  -3.13974
   D81       -3.13857  -0.00000   0.00000  -0.00001  -0.00001  -3.13858
   D82        0.00315  -0.00000   0.00000  -0.00004  -0.00004   0.00311
   D83        0.00197  -0.00000   0.00000  -0.00001  -0.00001   0.00196
   D84        3.09802  -0.00000   0.00000  -0.00000  -0.00000   3.09802
   D85       -3.14030   0.00000   0.00000   0.00001   0.00001  -3.14029
   D86       -0.04425   0.00000   0.00000   0.00002   0.00002  -0.04423
   D87       -0.00219  -0.00000   0.00000  -0.00002  -0.00002  -0.00222
   D88       -3.09828  -0.00000   0.00000  -0.00003  -0.00003  -3.09831
   D89        3.13927   0.00000   0.00000   0.00001   0.00001   3.13928
   D90        0.04319  -0.00000   0.00000  -0.00000  -0.00000   0.04319
   D91        0.39870  -0.00000   0.00000  -0.00000  -0.00000   0.39870
   D92        2.78396   0.00000   0.00000   0.00004   0.00004   2.78400
   D93       -2.78955  -0.00000   0.00000   0.00001   0.00001  -2.78954
   D94       -0.40428   0.00000   0.00000   0.00005   0.00005  -0.40424
         Item               Value     Threshold  Converged?
 Maximum Force            0.000011     0.000450     YES
 RMS     Force            0.000003     0.000300     YES
 Maximum Displacement     0.001182     0.001800     YES
 RMS     Displacement     0.000211     0.001200     YES
 Predicted change in Energy=-5.092742D-09
 Optimization completed.
    -- Stationary point found.
                           ----------------------------
                           !   Optimized Parameters   !
                           ! (Angstroms and Degrees)  !
 --------------------------                            --------------------------
 ! Name  Definition              Value          Derivative Info.                !
 --------------------------------------------------------------------------------
 ! R1    R(1,2)                  1.4468         -DE/DX =    0.0                 !
 ! R2    R(1,6)                  1.4496         -DE/DX =    0.0                 !
 ! R3    R(1,14)                 1.3316         -DE/DX =    0.0                 !
 ! R4    R(2,3)                  1.4498         -DE/DX =    0.0                 !
 ! R5    R(2,30)                 1.2661         -DE/DX =    0.0                 !
 ! R6    R(3,4)                  1.4096         -DE/DX =    0.0                 !
 ! R7    R(3,7)                  1.4171         -DE/DX =    0.0                 !
 ! R8    R(4,5)                  1.4407         -DE/DX =    0.0                 !
 ! R9    R(4,8)                  1.3985         -DE/DX =    0.0                 !
 ! R10   R(5,6)                  1.3455         -DE/DX =    0.0                 !
 ! R11   R(5,9)                  1.0811         -DE/DX =    0.0                 !
 ! R12   R(6,37)                 1.8115         -DE/DX =    0.0                 !
 ! R13   R(7,11)                 1.3845         -DE/DX =    0.0                 !
 ! R14   R(7,31)                 1.3426         -DE/DX =    0.0                 !
 ! R15   R(8,10)                 1.3799         -DE/DX =    0.0                 !
 ! R16   R(8,12)                 1.0813         -DE/DX =    0.0                 !
 ! R17   R(10,11)                1.3904         -DE/DX =    0.0                 !
 ! R18   R(10,33)                1.8028         -DE/DX =    0.0                 !
 ! R19   R(11,13)                1.0821         -DE/DX =    0.0                 !
 ! R20   R(14,15)                1.2798         -DE/DX =    0.0                 !
 ! R21   R(15,16)                1.0298         -DE/DX =    0.0                 !
 ! R22   R(15,17)                1.4081         -DE/DX =    0.0                 !
 ! R23   R(17,18)                1.3918         -DE/DX =    0.0                 !
 ! R24   R(17,19)                1.392          -DE/DX =    0.0                 !
 ! R25   R(18,20)                1.3822         -DE/DX =    0.0                 !
 ! R26   R(18,21)                1.084          -DE/DX =    0.0                 !
 ! R27   R(19,22)                1.3811         -DE/DX =    0.0                 !
 ! R28   R(19,23)                1.0807         -DE/DX =    0.0                 !
 ! R29   R(20,24)                1.3991         -DE/DX =    0.0                 !
 ! R30   R(20,25)                1.0837         -DE/DX =    0.0                 !
 ! R31   R(22,24)                1.4015         -DE/DX =    0.0                 !
 ! R32   R(22,26)                1.0839         -DE/DX =    0.0                 !
 ! R33   R(24,27)                1.3847         -DE/DX =    0.0                 !
 ! R34   R(27,28)                1.009          -DE/DX =    0.0                 !
 ! R35   R(27,29)                1.009          -DE/DX =    0.0                 !
 ! R36   R(31,32)                0.9887         -DE/DX =    0.0                 !
 ! R37   R(33,34)                1.4804         -DE/DX =    0.0                 !
 ! R38   R(33,35)                1.4775         -DE/DX =    0.0                 !
 ! R39   R(33,36)                1.4796         -DE/DX =    0.0                 !
 ! R40   R(37,38)                1.4785         -DE/DX =    0.0                 !
 ! R41   R(37,39)                1.4797         -DE/DX =    0.0                 !
 ! R42   R(37,40)                1.4786         -DE/DX =    0.0                 !
 ! A1    A(2,1,6)              118.93           -DE/DX =    0.0                 !
 ! A2    A(2,1,14)             123.0112         -DE/DX =    0.0                 !
 ! A3    A(6,1,14)             118.0585         -DE/DX =    0.0                 !
 ! A4    A(1,2,3)              118.7207         -DE/DX =    0.0                 !
 ! A5    A(1,2,30)             120.7858         -DE/DX =    0.0                 !
 ! A6    A(3,2,30)             120.4934         -DE/DX =    0.0                 !
 ! A7    A(2,3,4)              120.0212         -DE/DX =    0.0                 !
 ! A8    A(2,3,7)              120.5919         -DE/DX =    0.0                 !
 ! A9    A(4,3,7)              119.3867         -DE/DX =    0.0                 !
 ! A10   A(3,4,5)              119.5589         -DE/DX =    0.0                 !
 ! A11   A(3,4,8)              119.8327         -DE/DX =    0.0                 !
 ! A12   A(5,4,8)              120.6084         -DE/DX =    0.0                 !
 ! A13   A(4,5,6)              121.7262         -DE/DX =    0.0                 !
 ! A14   A(4,5,9)              118.7348         -DE/DX =    0.0                 !
 ! A15   A(6,5,9)              119.5391         -DE/DX =    0.0                 !
 ! A16   A(1,6,5)              121.0424         -DE/DX =    0.0                 !
 ! A17   A(1,6,37)             121.4208         -DE/DX =    0.0                 !
 ! A18   A(5,6,37)             117.5367         -DE/DX =    0.0                 !
 ! A19   A(3,7,11)             119.9953         -DE/DX =    0.0                 !
 ! A20   A(3,7,31)             121.4676         -DE/DX =    0.0                 !
 ! A21   A(11,7,31)            118.5369         -DE/DX =    0.0                 !
 ! A22   A(4,8,10)             119.421          -DE/DX =    0.0                 !
 ! A23   A(4,8,12)             120.4673         -DE/DX =    0.0                 !
 ! A24   A(10,8,12)            120.1109         -DE/DX =    0.0                 !
 ! A25   A(8,10,11)            121.866          -DE/DX =    0.0                 !
 ! A26   A(8,10,33)            119.7884         -DE/DX =    0.0                 !
 ! A27   A(11,10,33)           118.3408         -DE/DX =    0.0                 !
 ! A28   A(7,11,10)            119.4981         -DE/DX =    0.0                 !
 ! A29   A(7,11,13)            119.0805         -DE/DX =    0.0                 !
 ! A30   A(10,11,13)           121.4205         -DE/DX =    0.0                 !
 ! A31   A(1,14,15)            121.2039         -DE/DX =    0.0                 !
 ! A32   A(14,15,16)           117.6469         -DE/DX =    0.0                 !
 ! A33   A(14,15,17)           121.9323         -DE/DX =    0.0                 !
 ! A34   A(16,15,17)           120.4205         -DE/DX =    0.0                 !
 ! A35   A(15,17,18)           117.8745         -DE/DX =    0.0                 !
 ! A36   A(15,17,19)           122.4015         -DE/DX =    0.0                 !
 ! A37   A(18,17,19)           119.7238         -DE/DX =    0.0                 !
 ! A38   A(17,18,20)           120.3057         -DE/DX =    0.0                 !
 ! A39   A(17,18,21)           120.0308         -DE/DX =    0.0                 !
 ! A40   A(20,18,21)           119.6633         -DE/DX =    0.0                 !
 ! A41   A(17,19,22)           119.8582         -DE/DX =    0.0                 !
 ! A42   A(17,19,23)           119.8882         -DE/DX =    0.0                 !
 ! A43   A(22,19,23)           120.2535         -DE/DX =    0.0                 !
 ! A44   A(18,20,24)           120.6694         -DE/DX =    0.0                 !
 ! A45   A(18,20,25)           119.6784         -DE/DX =    0.0                 !
 ! A46   A(24,20,25)           119.6522         -DE/DX =    0.0                 !
 ! A47   A(19,22,24)           121.1068         -DE/DX =    0.0                 !
 ! A48   A(19,22,26)           119.4375         -DE/DX =    0.0                 !
 ! A49   A(24,22,26)           119.4556         -DE/DX =    0.0                 !
 ! A50   A(20,24,22)           118.3358         -DE/DX =    0.0                 !
 ! A51   A(20,24,27)           120.8397         -DE/DX =    0.0                 !
 ! A52   A(22,24,27)           120.7722         -DE/DX =    0.0                 !
 ! A53   A(24,27,28)           116.3208         -DE/DX =    0.0                 !
 ! A54   A(24,27,29)           116.4034         -DE/DX =    0.0                 !
 ! A55   A(28,27,29)           112.7536         -DE/DX =    0.0                 !
 ! A56   A(7,31,32)            106.7931         -DE/DX =    0.0                 !
 ! A57   A(10,33,34)           105.3552         -DE/DX =    0.0                 !
 ! A58   A(10,33,35)           105.8432         -DE/DX =    0.0                 !
 ! A59   A(10,33,36)           105.4005         -DE/DX =    0.0                 !
 ! A60   A(34,33,35)           113.1851         -DE/DX =    0.0                 !
 ! A61   A(34,33,36)           112.8203         -DE/DX =    0.0                 !
 ! A62   A(35,33,36)           113.3103         -DE/DX =    0.0                 !
 ! A63   A(6,37,38)            106.2607         -DE/DX =    0.0                 !
 ! A64   A(6,37,39)            104.7092         -DE/DX =    0.0                 !
 ! A65   A(6,37,40)            106.2765         -DE/DX =    0.0                 !
 ! A66   A(38,37,39)           112.4599         -DE/DX =    0.0                 !
 ! A67   A(38,37,40)           113.8341         -DE/DX =    0.0                 !
 ! A68   A(39,37,40)           112.455          -DE/DX =    0.0                 !
 ! D1    D(6,1,2,3)              0.243          -DE/DX =    0.0                 !
 ! D2    D(6,1,2,30)          -179.863          -DE/DX =    0.0                 !
 ! D3    D(14,1,2,3)          -179.5645         -DE/DX =    0.0                 !
 ! D4    D(14,1,2,30)            0.3295         -DE/DX =    0.0                 !
 ! D5    D(2,1,6,5)             -0.2273         -DE/DX =    0.0                 !
 ! D6    D(2,1,6,37)           179.805          -DE/DX =    0.0                 !
 ! D7    D(14,1,6,5)           179.5898         -DE/DX =    0.0                 !
 ! D8    D(14,1,6,37)           -0.3779         -DE/DX =    0.0                 !
 ! D9    D(2,1,14,15)           -0.1088         -DE/DX =    0.0                 !
 ! D10   D(6,1,14,15)         -179.9179         -DE/DX =    0.0                 !
 ! D11   D(1,2,3,4)             -0.0535         -DE/DX =    0.0                 !
 ! D12   D(1,2,3,7)            179.787          -DE/DX =    0.0                 !
 ! D13   D(30,2,3,4)          -179.9478         -DE/DX =    0.0                 !
 ! D14   D(30,2,3,7)            -0.1073         -DE/DX =    0.0                 !
 ! D15   D(2,3,4,5)             -0.1577         -DE/DX =    0.0                 !
 ! D16   D(2,3,4,8)            179.7651         -DE/DX =    0.0                 !
 ! D17   D(7,3,4,5)            179.9998         -DE/DX =    0.0                 !
 ! D18   D(7,3,4,8)             -0.0773         -DE/DX =    0.0                 !
 ! D19   D(2,3,7,11)          -179.7112         -DE/DX =    0.0                 !
 ! D20   D(2,3,7,31)             0.1341         -DE/DX =    0.0                 !
 ! D21   D(4,3,7,11)             0.1303         -DE/DX =    0.0                 !
 ! D22   D(4,3,7,31)           179.9756         -DE/DX =    0.0                 !
 ! D23   D(3,4,5,6)              0.1825         -DE/DX =    0.0                 !
 ! D24   D(3,4,5,9)           -179.8385         -DE/DX =    0.0                 !
 ! D25   D(8,4,5,6)           -179.7397         -DE/DX =    0.0                 !
 ! D26   D(8,4,5,9)              0.2392         -DE/DX =    0.0                 !
 ! D27   D(3,4,8,10)            -0.04           -DE/DX =    0.0                 !
 ! D28   D(3,4,8,12)          -179.7156         -DE/DX =    0.0                 !
 ! D29   D(5,4,8,10)           179.882          -DE/DX =    0.0                 !
 ! D30   D(5,4,8,12)             0.2064         -DE/DX =    0.0                 !
 ! D31   D(4,5,6,1)              0.0136         -DE/DX =    0.0                 !
 ! D32   D(4,5,6,37)           179.9825         -DE/DX =    0.0                 !
 ! D33   D(9,5,6,1)           -179.9652         -DE/DX =    0.0                 !
 ! D34   D(9,5,6,37)             0.0037         -DE/DX =    0.0                 !
 ! D35   D(1,6,37,38)          -60.5786         -DE/DX =    0.0                 !
 ! D36   D(1,6,37,39)         -179.7885         -DE/DX =    0.0                 !
 ! D37   D(1,6,37,40)           60.9998         -DE/DX =    0.0                 !
 ! D38   D(5,6,37,38)          119.4526         -DE/DX =    0.0                 !
 ! D39   D(5,6,37,39)            0.2427         -DE/DX =    0.0                 !
 ! D40   D(5,6,37,40)         -118.969          -DE/DX =    0.0                 !
 ! D41   D(3,7,11,10)           -0.065          -DE/DX =    0.0                 !
 ! D42   D(3,7,11,13)          179.6119         -DE/DX =    0.0                 !
 ! D43   D(31,7,11,10)        -179.9149         -DE/DX =    0.0                 !
 ! D44   D(31,7,11,13)          -0.2379         -DE/DX =    0.0                 !
 ! D45   D(3,7,31,32)           -0.0519         -DE/DX =    0.0                 !
 ! D46   D(11,7,31,32)         179.7956         -DE/DX =    0.0                 !
 ! D47   D(4,8,10,11)            0.1086         -DE/DX =    0.0                 !
 ! D48   D(4,8,10,33)          179.2995         -DE/DX =    0.0                 !
 ! D49   D(12,8,10,11)         179.7854         -DE/DX =    0.0                 !
 ! D50   D(12,8,10,33)          -1.0238         -DE/DX =    0.0                 !
 ! D51   D(8,10,11,7)           -0.0557         -DE/DX =    0.0                 !
 ! D52   D(8,10,11,13)        -179.7249         -DE/DX =    0.0                 !
 ! D53   D(33,10,11,7)        -179.2579         -DE/DX =    0.0                 !
 ! D54   D(33,10,11,13)          1.073          -DE/DX =    0.0                 !
 ! D55   D(8,10,33,34)        -112.9268         -DE/DX =    0.0                 !
 ! D56   D(8,10,33,35)           7.2273         -DE/DX =    0.0                 !
 ! D57   D(8,10,33,36)         127.5471         -DE/DX =    0.0                 !
 ! D58   D(11,10,33,34)         66.2924         -DE/DX =    0.0                 !
 ! D59   D(11,10,33,35)       -173.5535         -DE/DX =    0.0                 !
 ! D60   D(11,10,33,36)        -53.2337         -DE/DX =    0.0                 !
 ! D61   D(1,14,15,16)          -0.0646         -DE/DX =    0.0                 !
 ! D62   D(1,14,15,17)         179.719          -DE/DX =    0.0                 !
 ! D63   D(14,15,17,18)       -179.3012         -DE/DX =    0.0                 !
 ! D64   D(14,15,17,19)          0.5352         -DE/DX =    0.0                 !
 ! D65   D(16,15,17,18)          0.4765         -DE/DX =    0.0                 !
 ! D66   D(16,15,17,19)       -179.6871         -DE/DX =    0.0                 !
 ! D67   D(15,17,18,20)        179.8849         -DE/DX =    0.0                 !
 ! D68   D(15,17,18,21)          0.0252         -DE/DX =    0.0                 !
 ! D69   D(19,17,18,20)          0.044          -DE/DX =    0.0                 !
 ! D70   D(19,17,18,21)       -179.8157         -DE/DX =    0.0                 !
 ! D71   D(15,17,19,22)       -179.8891         -DE/DX =    0.0                 !
 ! D72   D(15,17,19,23)          0.036          -DE/DX =    0.0                 !
 ! D73   D(18,17,19,22)         -0.0557         -DE/DX =    0.0                 !
 ! D74   D(18,17,19,23)        179.8694         -DE/DX =    0.0                 !
 ! D75   D(17,18,20,24)         -0.0741         -DE/DX =    0.0                 !
 ! D76   D(17,18,20,25)        179.9651         -DE/DX =    0.0                 !
 ! D77   D(21,18,20,24)        179.7861         -DE/DX =    0.0                 !
 ! D78   D(21,18,20,25)         -0.1747         -DE/DX =    0.0                 !
 ! D79   D(17,19,22,24)          0.0982         -DE/DX =    0.0                 !
 ! D80   D(17,19,22,26)       -179.8945         -DE/DX =    0.0                 !
 ! D81   D(23,19,22,24)       -179.8266         -DE/DX =    0.0                 !
 ! D82   D(23,19,22,26)          0.1807         -DE/DX =    0.0                 !
 ! D83   D(18,20,24,22)          0.113          -DE/DX =    0.0                 !
 ! D84   D(18,20,24,27)        177.5037         -DE/DX =    0.0                 !
 ! D85   D(25,20,24,22)       -179.9262         -DE/DX =    0.0                 !
 ! D86   D(25,20,24,27)         -2.5355         -DE/DX =    0.0                 !
 ! D87   D(19,22,24,20)         -0.1256         -DE/DX =    0.0                 !
 ! D88   D(19,22,24,27)       -177.5181         -DE/DX =    0.0                 !
 ! D89   D(26,22,24,20)        179.8671         -DE/DX =    0.0                 !
 ! D90   D(26,22,24,27)          2.4746         -DE/DX =    0.0                 !
 ! D91   D(20,24,27,28)         22.8438         -DE/DX =    0.0                 !
 ! D92   D(20,24,27,29)        159.5093         -DE/DX =    0.0                 !
 ! D93   D(22,24,27,28)       -159.8292         -DE/DX =    0.0                 !
 ! D94   D(22,24,27,29)        -23.1638         -DE/DX =    0.0                 !
 --------------------------------------------------------------------------------
 GradGradGradGradGradGradGradGradGradGradGradGradGradGradGradGradGradGrad

                          Input orientation:                          
 ---------------------------------------------------------------------
 Center     Atomic      Atomic             Coordinates (Angstroms)
 Number     Number       Type             X           Y           Z
 ---------------------------------------------------------------------
      1          6           0        0.760460    0.227510    0.013540
      2          6           0       -0.052300   -0.969450    0.018760
      3          6           0       -1.495490   -0.831640    0.010690
      4          6           0       -2.081480    0.450330   -0.000840
      5          6           0       -1.237230    1.617690   -0.001070
      6          6           0        0.104750    1.520360    0.005830
      7          6           0       -2.329410   -1.977450    0.010880
      8          6           0       -3.474060    0.578660   -0.013570
      9          1           0       -1.700770    2.594350   -0.007310
     10          6           0       -4.259330   -0.555980   -0.015520
     11          6           0       -3.706160   -1.831530   -0.002920
     12          1           0       -3.934400    1.556990   -0.027110
     13          1           0       -4.328820   -2.716530   -0.008980
     14          7           0        2.091780    0.200410    0.011730
     15          7           0        2.732410   -0.907480    0.016650
     16          1           0        2.181900   -1.777780    0.023090
     17          6           0        4.139730   -0.954070    0.008970
     18          6           0        4.749360   -2.205260    0.000170
     19          6           0        4.924100    0.195880    0.006560
     20          6           0        6.127560   -2.309540   -0.010010
     21          1           0        4.143300   -3.104060   -0.001020
     22          6           0        6.301060    0.088980   -0.003370
     23          1           0        4.453520    1.168740    0.011240
     24          6           0        6.930000   -1.163380   -0.013190
     25          1           0        6.591520   -3.288840   -0.016230
     26          1           0        6.905250    0.988870   -0.003450
     27          7           0        8.310500   -1.263220    0.028410
     28          1           0        8.705890   -2.134510   -0.291860
     29          1           0        8.828390   -0.458630   -0.291680
     30          8           0        0.483530   -2.116580    0.028140
     31          8           0       -1.815980   -3.217940    0.021150
     32          1           0       -0.832140   -3.119860    0.026760
     33         16           0       -6.055570   -0.402050   -0.012760
     34          8           0       -6.491920   -0.926120    1.301250
     35          8           0       -6.337300    1.037810   -0.187430
     36          8           0       -6.522760   -1.231640   -1.145280
     37         16           0        1.056280    3.061880    0.004240
     38          8           0        1.861630    3.052570    1.244170
     39          8           0        0.035730    4.133370    0.001040
     40          8           0        1.864920    3.048450   -1.233540
 ---------------------------------------------------------------------
                    Distance matrix (angstroms):
                    1          2          3          4          5
     1  C    0.000000
     2  C    1.446831   0.000000
     3  C    2.492211   1.449777   0.000000
     4  C    2.850698   2.476637   1.409597   0.000000
     5  C    2.433840   2.845654   2.462936   1.440655   0.000000
     6  C    1.449647   2.494792   2.844766   2.434052   1.345523
     7  C    3.795939   2.490252   1.417146   2.440435   3.757397
     8  C    4.249141   3.755813   2.429871   1.398538   2.466404
     9  H    3.414677   3.926678   3.432182   2.177568   1.081098
    10  C    5.080649   4.227438   2.777677   2.399147   3.722652
    11  C    4.918395   3.754244   2.426320   2.801156   4.241785
    12  H    4.879639   4.632030   3.413981   2.158402   2.697979
    13  H    5.879511   4.619706   3.403080   3.883247   5.323857
    14  N    1.331597   2.442478   3.732778   4.180756   3.618170
    15  N    2.275258   2.785400   4.228584   5.001749   4.704768
    16  H    2.458001   2.375935   3.797174   4.810557   4.818739
    17  C    3.579891   4.192070   5.636550   6.377765   5.960348
    18  C    4.672245   4.958176   6.394145   7.328884   7.103113
    19  C    4.163766   5.111037   6.501304   7.010203   6.323258
    20  C    5.936576   6.323554   7.765018   8.660560   8.346457
    21  H    4.747966   4.707442   6.079472   7.168094   7.158563
    22  C    5.542357   6.440959   7.850728   8.390325   7.691734
    23  H    3.811117   4.987417   6.276324   6.574381   5.708445
    24  C    6.324438   6.985066   8.432052   9.154834   8.627754
    25  H    6.809322   7.037126   8.452117   9.444711   9.239242
    26  H    6.191801   7.227933   8.595748   9.002852   8.166725
    27  N    7.695817   8.367964   9.815499  10.532348   9.972946
    28  H    8.294713   8.840800  10.288691  11.096551  10.631519
    29  H    8.102805   8.900785  10.335041  10.951532  10.281647
    30  O    2.360437   1.266139   2.359639   3.628931   4.111769
    31  O    4.302235   2.857670   2.407748   3.677931   4.870191
    32  H    3.706944   2.287461   2.382487   3.782574   4.754919
    33  S    6.845093   6.030107   4.580330   4.064491   5.224547
    34  O    7.455607   6.566229   5.161277   4.800212   5.981536
    35  O    7.146690   6.600972   5.193960   4.300227   5.136312
    36  O    7.517797   6.579558   5.173945   4.885052   6.112669
    37  S    2.849781   4.181003   4.655220   4.082371   2.710332
    38  O    3.272306   4.619676   5.280039   4.885675   3.634892
    39  O    3.972547   5.103610   5.195773   4.248219   2.819411
    40  O    3.276087   4.624663   5.281625   4.883016   3.631720
                    6          7          8          9         10
     6  C    0.000000
     7  C    4.261436   0.000000
     8  C    3.700683   2.800807   0.000000
     9  H    2.100840   4.614854   2.684698   0.000000
    10  C    4.832891   2.397053   1.379877   4.058433   0.000000
    11  C    5.075261   1.384530   2.421363   4.859015   1.390390
    12  H    4.039450   3.881971   1.081307   2.462846   2.137839
    13  H    6.132536   2.131730   3.404249   5.925546   2.161677
    14  N    2.385496   4.928488   5.578735   4.484947   6.396051
    15  N    3.577586   5.173673   6.381990   5.649467   7.000644
    16  H    3.897766   4.515743   6.127319   5.847356   6.556198
    17  C    4.733273   6.549586   7.766567   6.833959   8.408525
    18  C    5.954215   7.082443   8.681880   8.039931   9.158431
    19  C    4.998038   7.572106   8.406903   7.045690   9.214183
    20  C    7.137410   8.463514  10.026606   9.237472  10.533873
    21  H    6.139641   6.570035   8.460896   8.162418   8.780496
    22  C    6.359496   8.874421   9.787383   8.384878  10.580074
    23  H    4.362965   7.477075   7.949549   6.317277   8.881955
    24  C    7.333953   9.295158  10.548894   9.413329  11.205804
    25  H    8.075090   9.016844  10.783017  10.167304  11.189704
    26  H    6.821244   9.699392  10.387418   8.754494  11.270961
    27  N    8.665054  10.663870  11.927705  10.728823  12.589787
    28  H    9.350203  11.040569  12.481583  11.434232  13.063883
    29  H    8.950241  11.264762  12.349234  10.966529  13.090995
    30  O    3.656679   2.816432   4.788379   5.192811   4.993205
    31  O    5.112820   1.342584   4.143019   5.813501   3.613493
    32  H    4.733904   1.883393   4.545373   5.779955   4.280292
    33  S    6.453336   4.045579   2.761519   5.286088   1.802826
    34  O    7.153980   4.482950   3.619474   6.087787   2.618271
    35  O    6.462988   5.019393   2.905028   4.894147   2.624439
    36  O    7.267905   4.413289   3.721898   6.259773   2.618394
    37  S    1.811545   6.071061   5.166302   2.796434   6.430009
    38  O    2.639655   6.662351   6.014294   3.803533   7.216274
    39  O    2.613926   6.552565   4.995478   2.320363   6.359074
    40  O    2.639942   6.663382   6.007736   3.797893   7.209849
                   11         12         13         14         15
    11  C    0.000000
    12  H    3.396284   0.000000
    13  H    1.082112   4.291721   0.000000
    14  N    6.143704   6.177108   7.052168   0.000000
    15  N    6.504570   7.107875   7.289327   1.279786   0.000000
    16  H    5.888363   6.966515   6.578127   1.980274   1.029818
    17  C    7.894813   8.455667   8.650025   2.350943   1.408112
    18  C    8.463776   9.463771   9.092570   3.584705   2.398456
    19  C    8.865206   8.962521   9.700459   2.832328   2.453775
    20  C    9.845334  10.779304  10.464298   4.752667   3.673354
    21  H    7.951941   9.326055   8.480982   3.889527   2.610725
    22  C   10.189839  10.340225  10.993874   4.210782   3.705212
    23  H    8.693802   8.396988   9.603397   2.552544   2.696839
    24  C   10.657130  11.199812  11.365444   5.026820   4.205489
    25  H   10.400295  11.587803  10.935329   5.694147   4.534830
    26  H   10.979831  10.854554  11.829385   4.877642   4.583573
    27  N   12.030132  12.565598  12.722654   6.388659   5.589434
    28  H   12.419109  13.170960  13.050764   7.020717   6.106001
    29  H   12.612818  12.923681  13.352536   6.775567   6.120254
    30  O    4.199491   5.745979   4.849745   2.820493   2.553334
    31  O    2.344247   5.223982   2.562554   5.191897   5.101578
    32  H    3.149709   5.612472   3.520046   4.424220   4.195324
    33  S    2.750134   2.887457   2.887646   8.169631   8.802552
    34  O    3.206413   3.804114   3.098592   8.752819   9.313367
    35  O    3.897442   2.463570   4.261561   8.472915   9.278224
    36  O    3.098078   3.965649   2.882611   8.809071   9.333452
    37  S    6.828349   5.212731   7.898702   3.043079   4.308757
    38  O    7.510656   6.119385   8.554214   3.115557   4.236397
    39  O    7.041434   4.732912   8.122224   4.437976   5.716861
    40  O    7.507700   6.108358   8.549676   3.116648   4.238502
                   16         17         18         19         20
    16  H    0.000000
    17  C    2.124099   0.000000
    18  C    2.602905   1.391834   0.000000
    19  C    3.378649   1.391987   2.407498   0.000000
    20  C    3.981469   2.406061   1.382177   2.779518   0.000000
    21  H    2.367845   2.150016   1.084044   3.391063   2.137436
    22  C    4.522496   2.399886   2.769715   1.381139   2.404796
    23  H    3.720535   2.145878   3.386963   1.080705   3.860219
    24  C    4.787824   2.798197   2.416792   2.423141   1.399144
    25  H    4.661502   3.385714   2.137281   3.863170   1.083663
    26  H    5.474038   3.379833   3.853614   2.133984   3.388857
    27  N    6.150166   4.182257   3.683742   3.687432   2.421051
    28  H    6.541322   4.725860   3.967923   4.452158   2.599589
    29  H    6.783441   4.724340   4.446839   3.969989   3.286288
    30  O    1.731841   3.836612   4.266843   5.006655   5.647456
    31  O    4.249366   6.371478   6.643015   7.555333   7.995373
    32  H    3.299338   5.423141   5.656001   6.642954   7.006811
    33  S    8.351636  10.210257  10.954371  10.995956  12.331552
    34  O    8.808755  10.709937  11.388388  11.543856  12.762622
    35  O    8.974889  10.666504  11.552780  11.294495  12.907710
    36  O    8.799685  10.728375  11.371925  11.592892  12.746815
    37  S    4.968872   5.063155   6.432855   4.813937   7.387167
    38  O    4.992584   4.771648   6.126279   4.367045   6.965870
    39  O    6.288738   6.536431   7.899148   6.276943   8.866882
    40  O    4.997208   4.768517   6.119110   4.362750   6.955227
                   21         22         23         24         25
    21  H    0.000000
    22  C    3.853756   0.000000
    23  H    4.284064   2.139976   0.000000
    24  C    3.395892   1.401452   3.401813   0.000000
    25  H    2.455230   3.390310   4.943867   2.152245   0.000000
    26  H    4.937656   1.083904   2.458363   2.152414   4.289218
    27  N    4.555778   2.422252   4.559717   1.384731   2.657070
    28  H    4.673526   3.287908   5.393142   2.043168   2.424667
    29  H    5.388214   2.601999   4.677561   2.044044   3.617948
    30  O    3.790763   6.221667   5.153099   6.516692   6.219623
    31  O    5.960409   8.764854   7.651777   8.984128   8.407882
    32  H    4.975543   7.821771   6.806654   8.005013   7.425707
    33  S   10.550732  12.366386  10.625861  13.007869  12.972373
    34  O   10.933766  12.899333  11.218521  13.488216  13.360187
    35  O   11.270883  12.675263  10.793443  13.449790  13.634647
    36  O   10.889450  12.942116  11.295047  13.500483  13.322581
    37  S    6.895545   6.028757   3.889122   7.235587   8.424426
    38  O    6.682859   5.481584   3.433195   6.711450   8.010864
    39  O    8.321810   7.457310   5.320339   8.694062   9.902923
    40  O    6.675590   5.472762   3.432730   6.699537   7.998990
                   26         27         28         29         30
    26  H    0.000000
    27  N    2.654741   0.000000
    28  H    3.616765   1.008986   0.000000
    29  H    2.424211   1.008976   1.680351   0.000000
    30  O    7.133253   7.873353   8.228604   8.513975   0.000000
    31  O    9.682856  10.313417  10.582133  11.000648   2.549664
    32  H    8.760695   9.329254   9.594084  10.025437   1.654557
    33  S   13.035245  14.391917  14.865397  14.886681   6.760260
    34  O   13.596087  14.860868  15.328785  15.409993   7.189917
    35  O   13.243918  14.829004  15.374397  15.239697   7.518003
    36  O   13.658180  14.879655  15.279243  15.394284   7.158780
    37  S    6.205472   8.445755   9.252388   8.537403   5.210092
    38  O    5.590484   7.854428   8.724052   7.951296   5.486164
    39  O    7.555012   9.879056  10.702513   9.923861   6.266030
    40  O    5.582107   7.856750   8.634159   7.853447   5.493415
                   31         32         33         34         35
    31  O    0.000000
    32  H    0.988733   0.000000
    33  S    5.089647   5.888317   0.000000
    34  O    5.362416   6.202413   1.480430   0.000000
    35  O    6.212668   6.902093   1.477524   2.469230   0.000000
    36  O    5.240203   6.109190   1.479557   2.465726   2.470278
    37  S    6.905527   6.463787   7.910595   8.634912   7.668026
    38  O    7.371559   6.843784   8.729051   9.252839   8.563363
    39  O    7.580963   7.305012   7.594351   8.360574   7.087561
    40  O    7.375020   6.849127   8.725275   9.594746   8.509608
                   36         37         38         39         40
    36  O    0.000000
    37  S    8.786214   0.000000
    38  O    9.714007   1.478547   0.000000
    39  O    8.550507   1.479738   2.459149   0.000000
    40  O    9.417013   1.478573   2.477716   2.459100   0.000000
 Stoichiometry    C16H11N3O8S2(2-)
 Framework group  C1[X(C16H11N3O8S2)]
 Deg. of freedom   114
 Full point group                 C1      NOp   1
 Largest Abelian subgroup         C1      NOp   1
 Largest concise Abelian subgroup C1      NOp   1
                         Standard orientation:                         
 ---------------------------------------------------------------------
 Center     Atomic      Atomic             Coordinates (Angstroms)
 Number     Number       Type             X           Y           Z
 ---------------------------------------------------------------------
      1          6           0        0.760460    0.227510    0.013539
      2          6           0       -0.052300   -0.969450    0.018759
      3          6           0       -1.495490   -0.831640    0.010689
      4          6           0       -2.081480    0.450330   -0.000841
      5          6           0       -1.237230    1.617690   -0.001071
      6          6           0        0.104750    1.520360    0.005829
      7          6           0       -2.329410   -1.977450    0.010879
      8          6           0       -3.474060    0.578660   -0.013571
      9          1           0       -1.700770    2.594350   -0.007311
     10          6           0       -4.259330   -0.555980   -0.015521
     11          6           0       -3.706160   -1.831530   -0.002921
     12          1           0       -3.934400    1.556990   -0.027111
     13          1           0       -4.328820   -2.716530   -0.008981
     14          7           0        2.091780    0.200410    0.011729
     15          7           0        2.732410   -0.907480    0.016649
     16          1           0        2.181900   -1.777780    0.023089
     17          6           0        4.139730   -0.954070    0.008969
     18          6           0        4.749360   -2.205260    0.000169
     19          6           0        4.924100    0.195880    0.006559
     20          6           0        6.127560   -2.309540   -0.010011
     21          1           0        4.143300   -3.104060   -0.001021
     22          6           0        6.301060    0.088980   -0.003371
     23          1           0        4.453520    1.168740    0.011239
     24          6           0        6.930000   -1.163380   -0.013191
     25          1           0        6.591520   -3.288840   -0.016231
     26          1           0        6.905250    0.988870   -0.003451
     27          7           0        8.310500   -1.263220    0.028409
     28          1           0        8.705890   -2.134510   -0.291861
     29          1           0        8.828390   -0.458630   -0.291681
     30          8           0        0.483530   -2.116580    0.028139
     31          8           0       -1.815980   -3.217940    0.021149
     32          1           0       -0.832140   -3.119860    0.026759
     33         16           0       -6.055570   -0.402050   -0.012761
     34          8           0       -6.491920   -0.926120    1.301249
     35          8           0       -6.337300    1.037810   -0.187431
     36          8           0       -6.522760   -1.231640   -1.145281
     37         16           0        1.056280    3.061880    0.004239
     38          8           0        1.861630    3.052570    1.244169
     39          8           0        0.035730    4.133370    0.001039
     40          8           0        1.864920    3.048450   -1.233541
 ---------------------------------------------------------------------
 Rotational constants (GHZ):           0.3000367           0.0640037           0.0538521
 Unable to Open any file for archive entry.
 1\1\GINC-SOL-E610\FOpt\RCAM-B3LYP\6-311++G(d,p)\C16H11N3O8S2(2-)\ZJK22
 0\19-Mar-2025\0\\# opt freq cam-b3lyp/6-311++g(d,p) scrf=(solvent=wate
 r)\\opt freq\\-2,1\C,0.76046,0.22751,0.01354\C,-0.0523,-0.96945,0.0187
 6\C,-1.49549,-0.83164,0.01069\C,-2.08148,0.45033,-0.00084\C,-1.23723,1
 .61769,-0.00107\C,0.10475,1.52036,0.00583\C,-2.32941,-1.97745,0.01088\
 C,-3.47406,0.57866,-0.01357\H,-1.70077,2.59435,-0.00731\C,-4.25933,-0.
 55598,-0.01552\C,-3.70616,-1.83153,-0.00292\H,-3.9344,1.55699,-0.02711
 \H,-4.32882,-2.71653,-0.00898\N,2.09178,0.20041,0.01173\N,2.73241,-0.9
 0748,0.01665\H,2.1819,-1.77778,0.02309\C,4.13973,-0.95407,0.00897\C,4.
 74936,-2.20526,0.00017\C,4.9241,0.19588,0.00656\C,6.12756,-2.30954,-0.
 01001\H,4.1433,-3.10406,-0.00102\C,6.30106,0.08898,-0.00337\H,4.45352,
 1.16874,0.01124\C,6.93,-1.16338,-0.01319\H,6.59152,-3.28884,-0.01623\H
 ,6.90525,0.98887,-0.00345\N,8.3105,-1.26322,0.02841\H,8.70589,-2.13451
 ,-0.29186\H,8.82839,-0.45863,-0.29168\O,0.48353,-2.11658,0.02814\O,-1.
 81598,-3.21794,0.02115\H,-0.83214,-3.11986,0.02676\S,-6.05557,-0.40205
 ,-0.01276\O,-6.49192,-0.92612,1.30125\O,-6.3373,1.03781,-0.18743\O,-6.
 52276,-1.23164,-1.14528\S,1.05628,3.06188,0.00424\O,1.86163,3.05257,1.
 24417\O,0.03573,4.13337,0.00104\O,1.86492,3.04845,-1.23354\\Version=ES
 64L-G16RevC.01\State=1-A\HF=-2178.8348283\RMSD=5.527e-09\RMSF=4.183e-0
 6\Dipole=13.0682489,-5.993941,-0.4857379\Quadrupole=-66.2269418,14.196
 195,52.0307468,-39.040553,-8.2188871,1.1891333\PG=C01 [X(C16H11N3O8S2)
 ]\\@
 The archive entry for this job was punched.


0EVERYBODY IS IGNORANT, ONLY ON DIFFERENT SUBJECTS.
0          WILL ROGERS
 Job cpu time:       0 days  2 hours 23 minutes 56.4 seconds.
 Elapsed time:       0 days  0 hours  4 minutes  4.1 seconds.
 File lengths (MBytes):  RWF=    544 Int=      0 D2E=      0 Chk=     44 Scr=      8
 Normal termination of Gaussian 16 at Wed Mar 19 16:51:38 2025.
 Link1:  Proceeding to internal job step number  2.
 ----------------------------------------------------------------------
 #N Geom=AllCheck Guess=TCheck SCRF=Check GenChk RCAM-B3LYP/6-311++G(d,
 p) Freq
 ----------------------------------------------------------------------
 1/10=4,29=7,30=1,38=1,40=1/1,3;
 2/12=2,40=1/2;
 3/5=4,6=6,7=1111,11=2,14=-4,25=1,30=1,70=2,71=2,74=-40,116=1,140=1/1,2,3;
 4/5=101/1;
 5/5=2,38=6,98=1/2;
 8/6=4,10=90,11=11/1;
 11/6=1,8=1,9=11,15=111,16=1/1,2,10;
 10/6=1/2;
 6/7=2,8=2,9=2,10=2,28=1/1;
 7/8=1,10=1,25=1/1,2,3,16;
 1/10=4,30=1/3;
 99//99;
 Structure from the checkpoint file:  "AV3_NH.chk"
 --------
 opt freq
 --------
 Charge = -2 Multiplicity = 1
 Redundant internal coordinates found in file.  (old form).
 C,0,0.76046,0.22751,0.01354
 C,0,-0.0523,-0.96945,0.01876
 C,0,-1.49549,-0.83164,0.01069
 C,0,-2.08148,0.45033,-0.00084
 C,0,-1.23723,1.61769,-0.00107
 C,0,0.10475,1.52036,0.00583
 C,0,-2.32941,-1.97745,0.01088
 C,0,-3.47406,0.57866,-0.01357
 H,0,-1.70077,2.59435,-0.00731
 C,0,-4.25933,-0.55598,-0.01552
 C,0,-3.70616,-1.83153,-0.00292
 H,0,-3.9344,1.55699,-0.02711
 H,0,-4.32882,-2.71653,-0.00898
 N,0,2.09178,0.20041,0.01173
 N,0,2.73241,-0.90748,0.01665
 H,0,2.1819,-1.77778,0.02309
 C,0,4.13973,-0.95407,0.00897
 C,0,4.74936,-2.20526,0.00017
 C,0,4.9241,0.19588,0.00656
 C,0,6.12756,-2.30954,-0.01001
 H,0,4.1433,-3.10406,-0.00102
 C,0,6.30106,0.08898,-0.00337
 H,0,4.45352,1.16874,0.01124
 C,0,6.93,-1.16338,-0.01319
 H,0,6.59152,-3.28884,-0.01623
 H,0,6.90525,0.98887,-0.00345
 N,0,8.3105,-1.26322,0.02841
 H,0,8.70589,-2.13451,-0.29186
 H,0,8.82839,-0.45863,-0.29168
 O,0,0.48353,-2.11658,0.02814
 O,0,-1.81598,-3.21794,0.02115
 H,0,-0.83214,-3.11986,0.02676
 S,0,-6.05557,-0.40205,-0.01276
 O,0,-6.49192,-0.92612,1.30125
 O,0,-6.3373,1.03781,-0.18743
 O,0,-6.52276,-1.23164,-1.14528
 S,0,1.05628,3.06188,0.00424
 O,0,1.86163,3.05257,1.24417
 O,0,0.03573,4.13337,0.00104
 O,0,1.86492,3.04845,-1.23354
 Recover connectivity data from disk.

 GradGradGradGradGradGradGradGradGradGradGradGradGradGradGradGradGradGrad
 Berny optimization.
 Initialization pass.
                           ----------------------------
                           !    Initial Parameters    !
                           ! (Angstroms and Degrees)  !
 --------------------------                            --------------------------
 ! Name  Definition              Value          Derivative Info.                !
 --------------------------------------------------------------------------------
 ! R1    R(1,2)                  1.4468         calculate D2E/DX2 analytically  !
 ! R2    R(1,6)                  1.4496         calculate D2E/DX2 analytically  !
 ! R3    R(1,14)                 1.3316         calculate D2E/DX2 analytically  !
 ! R4    R(2,3)                  1.4498         calculate D2E/DX2 analytically  !
 ! R5    R(2,30)                 1.2661         calculate D2E/DX2 analytically  !
 ! R6    R(3,4)                  1.4096         calculate D2E/DX2 analytically  !
 ! R7    R(3,7)                  1.4171         calculate D2E/DX2 analytically  !
 ! R8    R(4,5)                  1.4407         calculate D2E/DX2 analytically  !
 ! R9    R(4,8)                  1.3985         calculate D2E/DX2 analytically  !
 ! R10   R(5,6)                  1.3455         calculate D2E/DX2 analytically  !
 ! R11   R(5,9)                  1.0811         calculate D2E/DX2 analytically  !
 ! R12   R(6,37)                 1.8115         calculate D2E/DX2 analytically  !
 ! R13   R(7,11)                 1.3845         calculate D2E/DX2 analytically  !
 ! R14   R(7,31)                 1.3426         calculate D2E/DX2 analytically  !
 ! R15   R(8,10)                 1.3799         calculate D2E/DX2 analytically  !
 ! R16   R(8,12)                 1.0813         calculate D2E/DX2 analytically  !
 ! R17   R(10,11)                1.3904         calculate D2E/DX2 analytically  !
 ! R18   R(10,33)                1.8028         calculate D2E/DX2 analytically  !
 ! R19   R(11,13)                1.0821         calculate D2E/DX2 analytically  !
 ! R20   R(14,15)                1.2798         calculate D2E/DX2 analytically  !
 ! R21   R(15,16)                1.0298         calculate D2E/DX2 analytically  !
 ! R22   R(15,17)                1.4081         calculate D2E/DX2 analytically  !
 ! R23   R(17,18)                1.3918         calculate D2E/DX2 analytically  !
 ! R24   R(17,19)                1.392          calculate D2E/DX2 analytically  !
 ! R25   R(18,20)                1.3822         calculate D2E/DX2 analytically  !
 ! R26   R(18,21)                1.084          calculate D2E/DX2 analytically  !
 ! R27   R(19,22)                1.3811         calculate D2E/DX2 analytically  !
 ! R28   R(19,23)                1.0807         calculate D2E/DX2 analytically  !
 ! R29   R(20,24)                1.3991         calculate D2E/DX2 analytically  !
 ! R30   R(20,25)                1.0837         calculate D2E/DX2 analytically  !
 ! R31   R(22,24)                1.4015         calculate D2E/DX2 analytically  !
 ! R32   R(22,26)                1.0839         calculate D2E/DX2 analytically  !
 ! R33   R(24,27)                1.3847         calculate D2E/DX2 analytically  !
 ! R34   R(27,28)                1.009          calculate D2E/DX2 analytically  !
 ! R35   R(27,29)                1.009          calculate D2E/DX2 analytically  !
 ! R36   R(31,32)                0.9887         calculate D2E/DX2 analytically  !
 ! R37   R(33,34)                1.4804         calculate D2E/DX2 analytically  !
 ! R38   R(33,35)                1.4775         calculate D2E/DX2 analytically  !
 ! R39   R(33,36)                1.4796         calculate D2E/DX2 analytically  !
 ! R40   R(37,38)                1.4785         calculate D2E/DX2 analytically  !
 ! R41   R(37,39)                1.4797         calculate D2E/DX2 analytically  !
 ! R42   R(37,40)                1.4786         calculate D2E/DX2 analytically  !
 ! A1    A(2,1,6)              118.93           calculate D2E/DX2 analytically  !
 ! A2    A(2,1,14)             123.0112         calculate D2E/DX2 analytically  !
 ! A3    A(6,1,14)             118.0585         calculate D2E/DX2 analytically  !
 ! A4    A(1,2,3)              118.7207         calculate D2E/DX2 analytically  !
 ! A5    A(1,2,30)             120.7858         calculate D2E/DX2 analytically  !
 ! A6    A(3,2,30)             120.4934         calculate D2E/DX2 analytically  !
 ! A7    A(2,3,4)              120.0212         calculate D2E/DX2 analytically  !
 ! A8    A(2,3,7)              120.5919         calculate D2E/DX2 analytically  !
 ! A9    A(4,3,7)              119.3867         calculate D2E/DX2 analytically  !
 ! A10   A(3,4,5)              119.5589         calculate D2E/DX2 analytically  !
 ! A11   A(3,4,8)              119.8327         calculate D2E/DX2 analytically  !
 ! A12   A(5,4,8)              120.6084         calculate D2E/DX2 analytically  !
 ! A13   A(4,5,6)              121.7262         calculate D2E/DX2 analytically  !
 ! A14   A(4,5,9)              118.7348         calculate D2E/DX2 analytically  !
 ! A15   A(6,5,9)              119.5391         calculate D2E/DX2 analytically  !
 ! A16   A(1,6,5)              121.0424         calculate D2E/DX2 analytically  !
 ! A17   A(1,6,37)             121.4208         calculate D2E/DX2 analytically  !
 ! A18   A(5,6,37)             117.5367         calculate D2E/DX2 analytically  !
 ! A19   A(3,7,11)             119.9953         calculate D2E/DX2 analytically  !
 ! A20   A(3,7,31)             121.4676         calculate D2E/DX2 analytically  !
 ! A21   A(11,7,31)            118.5369         calculate D2E/DX2 analytically  !
 ! A22   A(4,8,10)             119.421          calculate D2E/DX2 analytically  !
 ! A23   A(4,8,12)             120.4673         calculate D2E/DX2 analytically  !
 ! A24   A(10,8,12)            120.1109         calculate D2E/DX2 analytically  !
 ! A25   A(8,10,11)            121.866          calculate D2E/DX2 analytically  !
 ! A26   A(8,10,33)            119.7884         calculate D2E/DX2 analytically  !
 ! A27   A(11,10,33)           118.3408         calculate D2E/DX2 analytically  !
 ! A28   A(7,11,10)            119.4981         calculate D2E/DX2 analytically  !
 ! A29   A(7,11,13)            119.0805         calculate D2E/DX2 analytically  !
 ! A30   A(10,11,13)           121.4205         calculate D2E/DX2 analytically  !
 ! A31   A(1,14,15)            121.2039         calculate D2E/DX2 analytically  !
 ! A32   A(14,15,16)           117.6469         calculate D2E/DX2 analytically  !
 ! A33   A(14,15,17)           121.9323         calculate D2E/DX2 analytically  !
 ! A34   A(16,15,17)           120.4205         calculate D2E/DX2 analytically  !
 ! A35   A(15,17,18)           117.8745         calculate D2E/DX2 analytically  !
 ! A36   A(15,17,19)           122.4015         calculate D2E/DX2 analytically  !
 ! A37   A(18,17,19)           119.7238         calculate D2E/DX2 analytically  !
 ! A38   A(17,18,20)           120.3057         calculate D2E/DX2 analytically  !
 ! A39   A(17,18,21)           120.0308         calculate D2E/DX2 analytically  !
 ! A40   A(20,18,21)           119.6633         calculate D2E/DX2 analytically  !
 ! A41   A(17,19,22)           119.8582         calculate D2E/DX2 analytically  !
 ! A42   A(17,19,23)           119.8882         calculate D2E/DX2 analytically  !
 ! A43   A(22,19,23)           120.2535         calculate D2E/DX2 analytically  !
 ! A44   A(18,20,24)           120.6694         calculate D2E/DX2 analytically  !
 ! A45   A(18,20,25)           119.6784         calculate D2E/DX2 analytically  !
 ! A46   A(24,20,25)           119.6522         calculate D2E/DX2 analytically  !
 ! A47   A(19,22,24)           121.1068         calculate D2E/DX2 analytically  !
 ! A48   A(19,22,26)           119.4375         calculate D2E/DX2 analytically  !
 ! A49   A(24,22,26)           119.4556         calculate D2E/DX2 analytically  !
 ! A50   A(20,24,22)           118.3358         calculate D2E/DX2 analytically  !
 ! A51   A(20,24,27)           120.8397         calculate D2E/DX2 analytically  !
 ! A52   A(22,24,27)           120.7722         calculate D2E/DX2 analytically  !
 ! A53   A(24,27,28)           116.3208         calculate D2E/DX2 analytically  !
 ! A54   A(24,27,29)           116.4034         calculate D2E/DX2 analytically  !
 ! A55   A(28,27,29)           112.7536         calculate D2E/DX2 analytically  !
 ! A56   A(7,31,32)            106.7931         calculate D2E/DX2 analytically  !
 ! A57   A(10,33,34)           105.3552         calculate D2E/DX2 analytically  !
 ! A58   A(10,33,35)           105.8432         calculate D2E/DX2 analytically  !
 ! A59   A(10,33,36)           105.4005         calculate D2E/DX2 analytically  !
 ! A60   A(34,33,35)           113.1851         calculate D2E/DX2 analytically  !
 ! A61   A(34,33,36)           112.8203         calculate D2E/DX2 analytically  !
 ! A62   A(35,33,36)           113.3103         calculate D2E/DX2 analytically  !
 ! A63   A(6,37,38)            106.2607         calculate D2E/DX2 analytically  !
 ! A64   A(6,37,39)            104.7092         calculate D2E/DX2 analytically  !
 ! A65   A(6,37,40)            106.2765         calculate D2E/DX2 analytically  !
 ! A66   A(38,37,39)           112.4599         calculate D2E/DX2 analytically  !
 ! A67   A(38,37,40)           113.8341         calculate D2E/DX2 analytically  !
 ! A68   A(39,37,40)           112.455          calculate D2E/DX2 analytically  !
 ! D1    D(6,1,2,3)              0.243          calculate D2E/DX2 analytically  !
 ! D2    D(6,1,2,30)          -179.863          calculate D2E/DX2 analytically  !
 ! D3    D(14,1,2,3)          -179.5645         calculate D2E/DX2 analytically  !
 ! D4    D(14,1,2,30)            0.3295         calculate D2E/DX2 analytically  !
 ! D5    D(2,1,6,5)             -0.2273         calculate D2E/DX2 analytically  !
 ! D6    D(2,1,6,37)           179.805          calculate D2E/DX2 analytically  !
 ! D7    D(14,1,6,5)           179.5898         calculate D2E/DX2 analytically  !
 ! D8    D(14,1,6,37)           -0.3779         calculate D2E/DX2 analytically  !
 ! D9    D(2,1,14,15)           -0.1088         calculate D2E/DX2 analytically  !
 ! D10   D(6,1,14,15)         -179.9179         calculate D2E/DX2 analytically  !
 ! D11   D(1,2,3,4)             -0.0535         calculate D2E/DX2 analytically  !
 ! D12   D(1,2,3,7)            179.787          calculate D2E/DX2 analytically  !
 ! D13   D(30,2,3,4)          -179.9478         calculate D2E/DX2 analytically  !
 ! D14   D(30,2,3,7)            -0.1073         calculate D2E/DX2 analytically  !
 ! D15   D(2,3,4,5)             -0.1577         calculate D2E/DX2 analytically  !
 ! D16   D(2,3,4,8)            179.7651         calculate D2E/DX2 analytically  !
 ! D17   D(7,3,4,5)            179.9998         calculate D2E/DX2 analytically  !
 ! D18   D(7,3,4,8)             -0.0773         calculate D2E/DX2 analytically  !
 ! D19   D(2,3,7,11)          -179.7112         calculate D2E/DX2 analytically  !
 ! D20   D(2,3,7,31)             0.1341         calculate D2E/DX2 analytically  !
 ! D21   D(4,3,7,11)             0.1303         calculate D2E/DX2 analytically  !
 ! D22   D(4,3,7,31)           179.9756         calculate D2E/DX2 analytically  !
 ! D23   D(3,4,5,6)              0.1825         calculate D2E/DX2 analytically  !
 ! D24   D(3,4,5,9)           -179.8385         calculate D2E/DX2 analytically  !
 ! D25   D(8,4,5,6)           -179.7397         calculate D2E/DX2 analytically  !
 ! D26   D(8,4,5,9)              0.2392         calculate D2E/DX2 analytically  !
 ! D27   D(3,4,8,10)            -0.04           calculate D2E/DX2 analytically  !
 ! D28   D(3,4,8,12)          -179.7156         calculate D2E/DX2 analytically  !
 ! D29   D(5,4,8,10)           179.882          calculate D2E/DX2 analytically  !
 ! D30   D(5,4,8,12)             0.2064         calculate D2E/DX2 analytically  !
 ! D31   D(4,5,6,1)              0.0136         calculate D2E/DX2 analytically  !
 ! D32   D(4,5,6,37)           179.9825         calculate D2E/DX2 analytically  !
 ! D33   D(9,5,6,1)           -179.9652         calculate D2E/DX2 analytically  !
 ! D34   D(9,5,6,37)             0.0037         calculate D2E/DX2 analytically  !
 ! D35   D(1,6,37,38)          -60.5786         calculate D2E/DX2 analytically  !
 ! D36   D(1,6,37,39)         -179.7885         calculate D2E/DX2 analytically  !
 ! D37   D(1,6,37,40)           60.9998         calculate D2E/DX2 analytically  !
 ! D38   D(5,6,37,38)          119.4526         calculate D2E/DX2 analytically  !
 ! D39   D(5,6,37,39)            0.2427         calculate D2E/DX2 analytically  !
 ! D40   D(5,6,37,40)         -118.969          calculate D2E/DX2 analytically  !
 ! D41   D(3,7,11,10)           -0.065          calculate D2E/DX2 analytically  !
 ! D42   D(3,7,11,13)          179.6119         calculate D2E/DX2 analytically  !
 ! D43   D(31,7,11,10)        -179.9149         calculate D2E/DX2 analytically  !
 ! D44   D(31,7,11,13)          -0.2379         calculate D2E/DX2 analytically  !
 ! D45   D(3,7,31,32)           -0.0519         calculate D2E/DX2 analytically  !
 ! D46   D(11,7,31,32)         179.7956         calculate D2E/DX2 analytically  !
 ! D47   D(4,8,10,11)            0.1086         calculate D2E/DX2 analytically  !
 ! D48   D(4,8,10,33)          179.2995         calculate D2E/DX2 analytically  !
 ! D49   D(12,8,10,11)         179.7854         calculate D2E/DX2 analytically  !
 ! D50   D(12,8,10,33)          -1.0238         calculate D2E/DX2 analytically  !
 ! D51   D(8,10,11,7)           -0.0557         calculate D2E/DX2 analytically  !
 ! D52   D(8,10,11,13)        -179.7249         calculate D2E/DX2 analytically  !
 ! D53   D(33,10,11,7)        -179.2579         calculate D2E/DX2 analytically  !
 ! D54   D(33,10,11,13)          1.073          calculate D2E/DX2 analytically  !
 ! D55   D(8,10,33,34)        -112.9268         calculate D2E/DX2 analytically  !
 ! D56   D(8,10,33,35)           7.2273         calculate D2E/DX2 analytically  !
 ! D57   D(8,10,33,36)         127.5471         calculate D2E/DX2 analytically  !
 ! D58   D(11,10,33,34)         66.2924         calculate D2E/DX2 analytically  !
 ! D59   D(11,10,33,35)       -173.5535         calculate D2E/DX2 analytically  !
 ! D60   D(11,10,33,36)        -53.2337         calculate D2E/DX2 analytically  !
 ! D61   D(1,14,15,16)          -0.0646         calculate D2E/DX2 analytically  !
 ! D62   D(1,14,15,17)         179.719          calculate D2E/DX2 analytically  !
 ! D63   D(14,15,17,18)       -179.3012         calculate D2E/DX2 analytically  !
 ! D64   D(14,15,17,19)          0.5352         calculate D2E/DX2 analytically  !
 ! D65   D(16,15,17,18)          0.4765         calculate D2E/DX2 analytically  !
 ! D66   D(16,15,17,19)       -179.6871         calculate D2E/DX2 analytically  !
 ! D67   D(15,17,18,20)        179.8849         calculate D2E/DX2 analytically  !
 ! D68   D(15,17,18,21)          0.0252         calculate D2E/DX2 analytically  !
 ! D69   D(19,17,18,20)          0.044          calculate D2E/DX2 analytically  !
 ! D70   D(19,17,18,21)       -179.8157         calculate D2E/DX2 analytically  !
 ! D71   D(15,17,19,22)       -179.8891         calculate D2E/DX2 analytically  !
 ! D72   D(15,17,19,23)          0.036          calculate D2E/DX2 analytically  !
 ! D73   D(18,17,19,22)         -0.0557         calculate D2E/DX2 analytically  !
 ! D74   D(18,17,19,23)        179.8694         calculate D2E/DX2 analytically  !
 ! D75   D(17,18,20,24)         -0.0741         calculate D2E/DX2 analytically  !
 ! D76   D(17,18,20,25)        179.9651         calculate D2E/DX2 analytically  !
 ! D77   D(21,18,20,24)        179.7861         calculate D2E/DX2 analytically  !
 ! D78   D(21,18,20,25)         -0.1747         calculate D2E/DX2 analytically  !
 ! D79   D(17,19,22,24)          0.0982         calculate D2E/DX2 analytically  !
 ! D80   D(17,19,22,26)       -179.8945         calculate D2E/DX2 analytically  !
 ! D81   D(23,19,22,24)       -179.8266         calculate D2E/DX2 analytically  !
 ! D82   D(23,19,22,26)          0.1807         calculate D2E/DX2 analytically  !
 ! D83   D(18,20,24,22)          0.113          calculate D2E/DX2 analytically  !
 ! D84   D(18,20,24,27)        177.5037         calculate D2E/DX2 analytically  !
 ! D85   D(25,20,24,22)       -179.9262         calculate D2E/DX2 analytically  !
 ! D86   D(25,20,24,27)         -2.5355         calculate D2E/DX2 analytically  !
 ! D87   D(19,22,24,20)         -0.1256         calculate D2E/DX2 analytically  !
 ! D88   D(19,22,24,27)       -177.5181         calculate D2E/DX2 analytically  !
 ! D89   D(26,22,24,20)        179.8671         calculate D2E/DX2 analytically  !
 ! D90   D(26,22,24,27)          2.4746         calculate D2E/DX2 analytically  !
 ! D91   D(20,24,27,28)         22.8438         calculate D2E/DX2 analytically  !
 ! D92   D(20,24,27,29)        159.5093         calculate D2E/DX2 analytically  !
 ! D93   D(22,24,27,28)       -159.8292         calculate D2E/DX2 analytically  !
 ! D94   D(22,24,27,29)        -23.1638         calculate D2E/DX2 analytically  !
 --------------------------------------------------------------------------------
 Trust Radius=3.00D-01 FncErr=1.00D-07 GrdErr=1.00D-07 EigMax=2.50D+02 EigMin=1.00D-04
 Number of steps in this run=      2 maximum allowed number of steps=      2.
 GradGradGradGradGradGradGradGradGradGradGradGradGradGradGradGradGradGrad

                          Input orientation:                          
 ---------------------------------------------------------------------
 Center     Atomic      Atomic             Coordinates (Angstroms)
 Number     Number       Type             X           Y           Z
 ---------------------------------------------------------------------
      1          6           0        0.760460    0.227510    0.013540
      2          6           0       -0.052300   -0.969450    0.018760
      3          6           0       -1.495490   -0.831640    0.010690
      4          6           0       -2.081480    0.450330   -0.000840
      5          6           0       -1.237230    1.617690   -0.001070
      6          6           0        0.104750    1.520360    0.005830
      7          6           0       -2.329410   -1.977450    0.010880
      8          6           0       -3.474060    0.578660   -0.013570
      9          1           0       -1.700770    2.594350   -0.007310
     10          6           0       -4.259330   -0.555980   -0.015520
     11          6           0       -3.706160   -1.831530   -0.002920
     12          1           0       -3.934400    1.556990   -0.027110
     13          1           0       -4.328820   -2.716530   -0.008980
     14          7           0        2.091780    0.200410    0.011730
     15          7           0        2.732410   -0.907480    0.016650
     16          1           0        2.181900   -1.777780    0.023090
     17          6           0        4.139730   -0.954070    0.008970
     18          6           0        4.749360   -2.205260    0.000170
     19          6           0        4.924100    0.195880    0.006560
     20          6           0        6.127560   -2.309540   -0.010010
     21          1           0        4.143300   -3.104060   -0.001020
     22          6           0        6.301060    0.088980   -0.003370
     23          1           0        4.453520    1.168740    0.011240
     24          6           0        6.930000   -1.163380   -0.013190
     25          1           0        6.591520   -3.288840   -0.016230
     26          1           0        6.905250    0.988870   -0.003450
     27          7           0        8.310500   -1.263220    0.028410
     28          1           0        8.705890   -2.134510   -0.291860
     29          1           0        8.828390   -0.458630   -0.291680
     30          8           0        0.483530   -2.116580    0.028140
     31          8           0       -1.815980   -3.217940    0.021150
     32          1           0       -0.832140   -3.119860    0.026760
     33         16           0       -6.055570   -0.402050   -0.012760
     34          8           0       -6.491920   -0.926120    1.301250
     35          8           0       -6.337300    1.037810   -0.187430
     36          8           0       -6.522760   -1.231640   -1.145280
     37         16           0        1.056280    3.061880    0.004240
     38          8           0        1.861630    3.052570    1.244170
     39          8           0        0.035730    4.133370    0.001040
     40          8           0        1.864920    3.048450   -1.233540
 ---------------------------------------------------------------------
                    Distance matrix (angstroms):
                    1          2          3          4          5
     1  C    0.000000
     2  C    1.446831   0.000000
     3  C    2.492211   1.449777   0.000000
     4  C    2.850698   2.476637   1.409597   0.000000
     5  C    2.433840   2.845654   2.462936   1.440655   0.000000
     6  C    1.449647   2.494792   2.844766   2.434052   1.345523
     7  C    3.795939   2.490252   1.417146   2.440435   3.757397
     8  C    4.249141   3.755813   2.429871   1.398538   2.466404
     9  H    3.414677   3.926678   3.432182   2.177568   1.081098
    10  C    5.080649   4.227438   2.777677   2.399147   3.722652
    11  C    4.918395   3.754244   2.426320   2.801156   4.241785
    12  H    4.879639   4.632030   3.413981   2.158402   2.697979
    13  H    5.879511   4.619706   3.403080   3.883247   5.323857
    14  N    1.331597   2.442478   3.732778   4.180756   3.618170
    15  N    2.275258   2.785400   4.228584   5.001749   4.704768
    16  H    2.458001   2.375935   3.797174   4.810557   4.818739
    17  C    3.579891   4.192070   5.636550   6.377765   5.960348
    18  C    4.672245   4.958176   6.394145   7.328884   7.103113
    19  C    4.163766   5.111037   6.501304   7.010203   6.323258
    20  C    5.936576   6.323554   7.765018   8.660560   8.346457
    21  H    4.747966   4.707442   6.079472   7.168094   7.158563
    22  C    5.542357   6.440959   7.850728   8.390325   7.691734
    23  H    3.811117   4.987417   6.276324   6.574381   5.708445
    24  C    6.324438   6.985066   8.432052   9.154834   8.627754
    25  H    6.809322   7.037126   8.452117   9.444711   9.239242
    26  H    6.191801   7.227933   8.595748   9.002852   8.166725
    27  N    7.695817   8.367964   9.815499  10.532348   9.972946
    28  H    8.294713   8.840800  10.288691  11.096551  10.631519
    29  H    8.102805   8.900785  10.335041  10.951532  10.281647
    30  O    2.360437   1.266139   2.359639   3.628931   4.111769
    31  O    4.302235   2.857670   2.407748   3.677931   4.870191
    32  H    3.706944   2.287461   2.382487   3.782574   4.754919
    33  S    6.845093   6.030107   4.580330   4.064491   5.224547
    34  O    7.455607   6.566229   5.161277   4.800212   5.981536
    35  O    7.146690   6.600972   5.193960   4.300227   5.136312
    36  O    7.517797   6.579558   5.173945   4.885052   6.112669
    37  S    2.849781   4.181003   4.655220   4.082371   2.710332
    38  O    3.272306   4.619676   5.280039   4.885675   3.634892
    39  O    3.972547   5.103610   5.195773   4.248219   2.819411
    40  O    3.276087   4.624663   5.281625   4.883016   3.631720
                    6          7          8          9         10
     6  C    0.000000
     7  C    4.261436   0.000000
     8  C    3.700683   2.800807   0.000000
     9  H    2.100840   4.614854   2.684698   0.000000
    10  C    4.832891   2.397053   1.379877   4.058433   0.000000
    11  C    5.075261   1.384530   2.421363   4.859015   1.390390
    12  H    4.039450   3.881971   1.081307   2.462846   2.137839
    13  H    6.132536   2.131730   3.404249   5.925546   2.161677
    14  N    2.385496   4.928488   5.578735   4.484947   6.396051
    15  N    3.577586   5.173673   6.381990   5.649467   7.000644
    16  H    3.897766   4.515743   6.127319   5.847356   6.556198
    17  C    4.733273   6.549586   7.766567   6.833959   8.408525
    18  C    5.954215   7.082443   8.681880   8.039931   9.158431
    19  C    4.998038   7.572106   8.406903   7.045690   9.214183
    20  C    7.137410   8.463514  10.026606   9.237472  10.533873
    21  H    6.139641   6.570035   8.460896   8.162418   8.780496
    22  C    6.359496   8.874421   9.787383   8.384878  10.580074
    23  H    4.362965   7.477075   7.949549   6.317277   8.881955
    24  C    7.333953   9.295158  10.548894   9.413329  11.205804
    25  H    8.075090   9.016844  10.783017  10.167304  11.189704
    26  H    6.821244   9.699392  10.387418   8.754494  11.270961
    27  N    8.665054  10.663870  11.927705  10.728823  12.589787
    28  H    9.350203  11.040569  12.481583  11.434232  13.063883
    29  H    8.950241  11.264762  12.349234  10.966529  13.090995
    30  O    3.656679   2.816432   4.788379   5.192811   4.993205
    31  O    5.112820   1.342584   4.143019   5.813501   3.613493
    32  H    4.733904   1.883393   4.545373   5.779955   4.280292
    33  S    6.453336   4.045579   2.761519   5.286088   1.802826
    34  O    7.153980   4.482950   3.619474   6.087787   2.618271
    35  O    6.462988   5.019393   2.905028   4.894147   2.624439
    36  O    7.267905   4.413289   3.721898   6.259773   2.618394
    37  S    1.811545   6.071061   5.166302   2.796434   6.430009
    38  O    2.639655   6.662351   6.014294   3.803533   7.216274
    39  O    2.613926   6.552565   4.995478   2.320363   6.359074
    40  O    2.639942   6.663382   6.007736   3.797893   7.209849
                   11         12         13         14         15
    11  C    0.000000
    12  H    3.396284   0.000000
    13  H    1.082112   4.291721   0.000000
    14  N    6.143704   6.177108   7.052168   0.000000
    15  N    6.504570   7.107875   7.289327   1.279786   0.000000
    16  H    5.888363   6.966515   6.578127   1.980274   1.029818
    17  C    7.894813   8.455667   8.650025   2.350943   1.408112
    18  C    8.463776   9.463771   9.092570   3.584705   2.398456
    19  C    8.865206   8.962521   9.700459   2.832328   2.453775
    20  C    9.845334  10.779304  10.464298   4.752667   3.673354
    21  H    7.951941   9.326055   8.480982   3.889527   2.610725
    22  C   10.189839  10.340225  10.993874   4.210782   3.705212
    23  H    8.693802   8.396988   9.603397   2.552544   2.696839
    24  C   10.657130  11.199812  11.365444   5.026820   4.205489
    25  H   10.400295  11.587803  10.935329   5.694147   4.534830
    26  H   10.979831  10.854554  11.829385   4.877642   4.583573
    27  N   12.030132  12.565598  12.722654   6.388659   5.589434
    28  H   12.419109  13.170960  13.050764   7.020717   6.106001
    29  H   12.612818  12.923681  13.352536   6.775567   6.120254
    30  O    4.199491   5.745979   4.849745   2.820493   2.553334
    31  O    2.344247   5.223982   2.562554   5.191897   5.101578
    32  H    3.149709   5.612472   3.520046   4.424220   4.195324
    33  S    2.750134   2.887457   2.887646   8.169631   8.802552
    34  O    3.206413   3.804114   3.098592   8.752819   9.313367
    35  O    3.897442   2.463570   4.261561   8.472915   9.278224
    36  O    3.098078   3.965649   2.882611   8.809071   9.333452
    37  S    6.828349   5.212731   7.898702   3.043079   4.308757
    38  O    7.510656   6.119385   8.554214   3.115557   4.236397
    39  O    7.041434   4.732912   8.122224   4.437976   5.716861
    40  O    7.507700   6.108358   8.549676   3.116648   4.238502
                   16         17         18         19         20
    16  H    0.000000
    17  C    2.124099   0.000000
    18  C    2.602905   1.391834   0.000000
    19  C    3.378649   1.391987   2.407498   0.000000
    20  C    3.981469   2.406061   1.382177   2.779518   0.000000
    21  H    2.367845   2.150016   1.084044   3.391063   2.137436
    22  C    4.522496   2.399886   2.769715   1.381139   2.404796
    23  H    3.720535   2.145878   3.386963   1.080705   3.860219
    24  C    4.787824   2.798197   2.416792   2.423141   1.399144
    25  H    4.661502   3.385714   2.137281   3.863170   1.083663
    26  H    5.474038   3.379833   3.853614   2.133984   3.388857
    27  N    6.150166   4.182257   3.683742   3.687432   2.421051
    28  H    6.541322   4.725860   3.967923   4.452158   2.599589
    29  H    6.783441   4.724340   4.446839   3.969989   3.286288
    30  O    1.731841   3.836612   4.266843   5.006655   5.647456
    31  O    4.249366   6.371478   6.643015   7.555333   7.995373
    32  H    3.299338   5.423141   5.656001   6.642954   7.006811
    33  S    8.351636  10.210257  10.954371  10.995956  12.331552
    34  O    8.808755  10.709937  11.388388  11.543856  12.762622
    35  O    8.974889  10.666504  11.552780  11.294495  12.907710
    36  O    8.799685  10.728375  11.371925  11.592892  12.746815
    37  S    4.968872   5.063155   6.432855   4.813937   7.387167
    38  O    4.992584   4.771648   6.126279   4.367045   6.965870
    39  O    6.288738   6.536431   7.899148   6.276943   8.866882
    40  O    4.997208   4.768517   6.119110   4.362750   6.955227
                   21         22         23         24         25
    21  H    0.000000
    22  C    3.853756   0.000000
    23  H    4.284064   2.139976   0.000000
    24  C    3.395892   1.401452   3.401813   0.000000
    25  H    2.455230   3.390310   4.943867   2.152245   0.000000
    26  H    4.937656   1.083904   2.458363   2.152414   4.289218
    27  N    4.555778   2.422252   4.559717   1.384731   2.657070
    28  H    4.673526   3.287908   5.393142   2.043168   2.424667
    29  H    5.388214   2.601999   4.677561   2.044044   3.617948
    30  O    3.790763   6.221667   5.153099   6.516692   6.219623
    31  O    5.960409   8.764854   7.651777   8.984128   8.407882
    32  H    4.975543   7.821771   6.806654   8.005013   7.425707
    33  S   10.550732  12.366386  10.625861  13.007869  12.972373
    34  O   10.933766  12.899333  11.218521  13.488216  13.360187
    35  O   11.270883  12.675263  10.793443  13.449790  13.634647
    36  O   10.889450  12.942116  11.295047  13.500483  13.322581
    37  S    6.895545   6.028757   3.889122   7.235587   8.424426
    38  O    6.682859   5.481584   3.433195   6.711450   8.010864
    39  O    8.321810   7.457310   5.320339   8.694062   9.902923
    40  O    6.675590   5.472762   3.432730   6.699537   7.998990
                   26         27         28         29         30
    26  H    0.000000
    27  N    2.654741   0.000000
    28  H    3.616765   1.008986   0.000000
    29  H    2.424211   1.008976   1.680351   0.000000
    30  O    7.133253   7.873353   8.228604   8.513975   0.000000
    31  O    9.682856  10.313417  10.582133  11.000648   2.549664
    32  H    8.760695   9.329254   9.594084  10.025437   1.654557
    33  S   13.035245  14.391917  14.865397  14.886681   6.760260
    34  O   13.596087  14.860868  15.328785  15.409993   7.189917
    35  O   13.243918  14.829004  15.374397  15.239697   7.518003
    36  O   13.658180  14.879655  15.279243  15.394284   7.158780
    37  S    6.205472   8.445755   9.252388   8.537403   5.210092
    38  O    5.590484   7.854428   8.724052   7.951296   5.486164
    39  O    7.555012   9.879056  10.702513   9.923861   6.266030
    40  O    5.582107   7.856750   8.634159   7.853447   5.493415
                   31         32         33         34         35
    31  O    0.000000
    32  H    0.988733   0.000000
    33  S    5.089647   5.888317   0.000000
    34  O    5.362416   6.202413   1.480430   0.000000
    35  O    6.212668   6.902093   1.477524   2.469230   0.000000
    36  O    5.240203   6.109190   1.479557   2.465726   2.470278
    37  S    6.905527   6.463787   7.910595   8.634912   7.668026
    38  O    7.371559   6.843784   8.729051   9.252839   8.563363
    39  O    7.580963   7.305012   7.594351   8.360574   7.087561
    40  O    7.375020   6.849127   8.725275   9.594746   8.509608
                   36         37         38         39         40
    36  O    0.000000
    37  S    8.786214   0.000000
    38  O    9.714007   1.478547   0.000000
    39  O    8.550507   1.479738   2.459149   0.000000
    40  O    9.417013   1.478573   2.477716   2.459100   0.000000
 Stoichiometry    C16H11N3O8S2(2-)
 Framework group  C1[X(C16H11N3O8S2)]
 Deg. of freedom   114
 Full point group                 C1      NOp   1
 Largest Abelian subgroup         C1      NOp   1
 Largest concise Abelian subgroup C1      NOp   1
                         Standard orientation:                         
 ---------------------------------------------------------------------
 Center     Atomic      Atomic             Coordinates (Angstroms)
 Number     Number       Type             X           Y           Z
 ---------------------------------------------------------------------
      1          6           0        0.760460    0.227510    0.013539
      2          6           0       -0.052300   -0.969450    0.018759
      3          6           0       -1.495490   -0.831640    0.010689
      4          6           0       -2.081480    0.450330   -0.000841
      5          6           0       -1.237230    1.617690   -0.001071
      6          6           0        0.104750    1.520360    0.005829
      7          6           0       -2.329410   -1.977450    0.010879
      8          6           0       -3.474060    0.578660   -0.013571
      9          1           0       -1.700770    2.594350   -0.007311
     10          6           0       -4.259330   -0.555980   -0.015521
     11          6           0       -3.706160   -1.831530   -0.002921
     12          1           0       -3.934400    1.556990   -0.027111
     13          1           0       -4.328820   -2.716530   -0.008981
     14          7           0        2.091780    0.200410    0.011729
     15          7           0        2.732410   -0.907480    0.016649
     16          1           0        2.181900   -1.777780    0.023089
     17          6           0        4.139730   -0.954070    0.008969
     18          6           0        4.749360   -2.205260    0.000169
     19          6           0        4.924100    0.195880    0.006559
     20          6           0        6.127560   -2.309540   -0.010011
     21          1           0        4.143300   -3.104060   -0.001021
     22          6           0        6.301060    0.088980   -0.003371
     23          1           0        4.453520    1.168740    0.011239
     24          6           0        6.930000   -1.163380   -0.013191
     25          1           0        6.591520   -3.288840   -0.016231
     26          1           0        6.905250    0.988870   -0.003451
     27          7           0        8.310500   -1.263220    0.028409
     28          1           0        8.705890   -2.134510   -0.291861
     29          1           0        8.828390   -0.458630   -0.291681
     30          8           0        0.483530   -2.116580    0.028139
     31          8           0       -1.815980   -3.217940    0.021149
     32          1           0       -0.832140   -3.119860    0.026759
     33         16           0       -6.055570   -0.402050   -0.012761
     34          8           0       -6.491920   -0.926120    1.301249
     35          8           0       -6.337300    1.037810   -0.187431
     36          8           0       -6.522760   -1.231640   -1.145281
     37         16           0        1.056280    3.061880    0.004239
     38          8           0        1.861630    3.052570    1.244169
     39          8           0        0.035730    4.133370    0.001039
     40          8           0        1.864920    3.048450   -1.233541
 ---------------------------------------------------------------------
 Rotational constants (GHZ):           0.3000367           0.0640037           0.0538521
 Standard basis: 6-311++G(d,p) (5D, 7F)
 There are   760 symmetry adapted cartesian basis functions of A   symmetry.
 There are   731 symmetry adapted basis functions of A   symmetry.
   731 basis functions,  1171 primitive gaussians,   760 cartesian basis functions
   113 alpha electrons      113 beta electrons
       nuclear repulsion energy      3038.8520646065 Hartrees.
 NAtoms=   40 NActive=   40 NUniq=   40 SFac= 1.00D+00 NAtFMM=   60 NAOKFM=F Big=F
 Integral buffers will be    131072 words long.
 Raffenetti 2 integral format.
 Two-electron integral symmetry is turned on.
 Force inversion solution in PCM.
 ------------------------------------------------------------------------------
 Polarizable Continuum Model (PCM)
 =================================
 Model                : PCM.
 Atomic radii         : UFF (Universal Force Field).
 Polarization charges : Total charges.
 Charge compensation  : None.
 Solution method      : Matrix inversion.
 Cavity type          : Scaled VdW (van der Waals Surface) (Alpha=1.100).
 Cavity algorithm     : GePol (No added spheres)
                        Default sphere list used, NSphG=   40.
                        Lebedev-Laikov grids with approx.  5.0 points / Ang**2.
                        Smoothing algorithm: York/Karplus (Gamma=1.0000).
                        Polarization charges: spherical gaussians, with
                                              point-specific exponents (IZeta= 3).
                        Self-potential: point-specific (ISelfS= 7).
                        Self-field    : sphere-specific E.n sum rule (ISelfD= 2).
 1st derivatives      : Analytical E(r).r(x)/FMM algorithm (CHGder, D1EAlg=3).
                        Cavity 1st derivative terms included.
 2nd derivatives      : Analytical E(r).r(xy)/FMM algorithm (CHGder, D2EAlg=3).
                        Cavity 2nd derivative terms included.
 Solvent              : Water, Eps=  78.355300 Eps(inf)=   1.777849
 ------------------------------------------------------------------------------
 One-electron integrals computed using PRISM.
 PrsmSu:  requested number of processors reduced to:  23 ShMem   1 Linda.
 NBasis=   731 RedAO= T EigKep=  1.33D-06  NBF=   731
 NBsUse=   721 1.00D-06 EigRej=  8.24D-07 NBFU=   721
 Initial guess from the checkpoint file:  "AV3_NH.chk"
 B after Tr=    -0.000000   -0.000000    0.000000
         Rot=    1.000000    0.000000    0.000000    0.000000 Ang=   0.00 deg.
 Requested convergence on RMS density matrix=1.00D-08 within 128 cycles.
 Requested convergence on MAX density matrix=1.00D-06.
 Requested convergence on             energy=1.00D-06.
 No special actions if energy rises.
 CoulSu:  requested number of processors reduced to:  32 ShMem   1 Linda.
 Inv3:  Mode=1 IEnd=    36289452.
 Iteration    1 A*A^-1 deviation from unit magnitude is 3.33D-15 for    896.
 Iteration    1 A*A^-1 deviation from orthogonality  is 1.94D-15 for   2960   2645.
 Iteration    1 A^-1*A deviation from unit magnitude is 3.77D-15 for    896.
 Iteration    1 A^-1*A deviation from orthogonality  is 2.62D-15 for   2307   2127.
 CoulSu:  requested number of processors reduced to:  32 ShMem   1 Linda.
 CoulSu:  requested number of processors reduced to:  32 ShMem   1 Linda.
 Error on total polarization charges =  0.02670
 SCF Done:  E(RCAM-B3LYP) =  -2178.83482833     A.U. after    1 cycles
            NFock=  1  Conv=0.47D-08     -V/T= 2.0023
 DoSCS=F DFT=T ScalE2(SS,OS)=  1.000000  1.000000
 Range of M.O.s used for correlation:     1   721
 NBasis=   731 NAE=   113 NBE=   113 NFC=     0 NFV=     0
 NROrb=    721 NOA=   113 NOB=   113 NVA=   608 NVB=   608

 **** Warning!!: The largest alpha MO coefficient is  0.10960996D+03

 PrsmSu:  requested number of processors reduced to:  18 ShMem   1 Linda.
 PrsmSu:  requested number of processors reduced to:   2 ShMem   1 Linda.
 Symmetrizing basis deriv contribution to polar:
 IMax=3 JMax=2 DiffMx= 0.00D+00
 G2DrvN: will do     1 centers at a time, making   41 passes.
 Estimated number of processors is:   24
 Calling FoFCou, ICntrl=  3107 FMM=F I1Cent=   0 AccDes= 0.00D+00.
 CoulSu:  requested number of processors reduced to:  30 ShMem   1 Linda.
 CoulSu:  requested number of processors reduced to:  30 ShMem   1 Linda.
 CalDSu:  requested number of processors reduced to:  32 ShMem   1 Linda.
 Calling FoFCou, ICntrl=  3107 FMM=F I1Cent=   0 AccDes= 0.00D+00.
 CoulSu:  requested number of processors reduced to:  24 ShMem   1 Linda.
 CoulSu:  requested number of processors reduced to:  24 ShMem   1 Linda.
 CalDSu:  requested number of processors reduced to:  32 ShMem   1 Linda.
 Calling FoFCou, ICntrl=  3107 FMM=F I1Cent=   0 AccDes= 0.00D+00.
 CoulSu:  requested number of processors reduced to:  24 ShMem   1 Linda.
 CoulSu:  requested number of processors reduced to:  24 ShMem   1 Linda.
 CalDSu:  requested number of processors reduced to:  32 ShMem   1 Linda.
 Calling FoFCou, ICntrl=  3107 FMM=F I1Cent=   0 AccDes= 0.00D+00.
 CoulSu:  requested number of processors reduced to:  24 ShMem   1 Linda.
 CoulSu:  requested number of processors reduced to:  24 ShMem   1 Linda.
 CalDSu:  requested number of processors reduced to:  32 ShMem   1 Linda.
 Calling FoFCou, ICntrl=  3107 FMM=F I1Cent=   0 AccDes= 0.00D+00.
 CoulSu:  requested number of processors reduced to:  24 ShMem   1 Linda.
 CoulSu:  requested number of processors reduced to:  24 ShMem   1 Linda.
 CalDSu:  requested number of processors reduced to:  32 ShMem   1 Linda.
 Calling FoFCou, ICntrl=  3107 FMM=F I1Cent=   0 AccDes= 0.00D+00.
 CoulSu:  requested number of processors reduced to:  24 ShMem   1 Linda.
 CoulSu:  requested number of processors reduced to:  24 ShMem   1 Linda.
 CalDSu:  requested number of processors reduced to:  32 ShMem   1 Linda.
 Calling FoFCou, ICntrl=  3107 FMM=F I1Cent=   0 AccDes= 0.00D+00.
 CoulSu:  requested number of processors reduced to:  24 ShMem   1 Linda.
 CoulSu:  requested number of processors reduced to:  24 ShMem   1 Linda.
 CalDSu:  requested number of processors reduced to:  32 ShMem   1 Linda.
 Calling FoFCou, ICntrl=  3107 FMM=F I1Cent=   0 AccDes= 0.00D+00.
 CoulSu:  requested number of processors reduced to:  24 ShMem   1 Linda.
 CoulSu:  requested number of processors reduced to:  24 ShMem   1 Linda.
 CalDSu:  requested number of processors reduced to:  32 ShMem   1 Linda.
 Calling FoFCou, ICntrl=  3107 FMM=F I1Cent=   0 AccDes= 0.00D+00.
 CoulSu:  requested number of processors reduced to:  24 ShMem   1 Linda.
 CoulSu:  requested number of processors reduced to:  24 ShMem   1 Linda.
 CalDSu:  requested number of processors reduced to:  32 ShMem   1 Linda.
 Calling FoFCou, ICntrl=  3107 FMM=F I1Cent=   0 AccDes= 0.00D+00.
 CoulSu:  requested number of processors reduced to:  24 ShMem   1 Linda.
 CoulSu:  requested number of processors reduced to:  24 ShMem   1 Linda.
 CalDSu:  requested number of processors reduced to:  32 ShMem   1 Linda.
 Calling FoFCou, ICntrl=  3107 FMM=F I1Cent=   0 AccDes= 0.00D+00.
 CoulSu:  requested number of processors reduced to:  24 ShMem   1 Linda.
 CoulSu:  requested number of processors reduced to:  24 ShMem   1 Linda.
 CalDSu:  requested number of processors reduced to:  32 ShMem   1 Linda.
 Calling FoFCou, ICntrl=  3107 FMM=F I1Cent=   0 AccDes= 0.00D+00.
 CoulSu:  requested number of processors reduced to:  24 ShMem   1 Linda.
 CoulSu:  requested number of processors reduced to:  24 ShMem   1 Linda.
 CalDSu:  requested number of processors reduced to:  32 ShMem   1 Linda.
 Calling FoFCou, ICntrl=  3107 FMM=F I1Cent=   0 AccDes= 0.00D+00.
 CoulSu:  requested number of processors reduced to:  24 ShMem   1 Linda.
 CoulSu:  requested number of processors reduced to:  24 ShMem   1 Linda.
 CalDSu:  requested number of processors reduced to:  32 ShMem   1 Linda.
 Calling FoFCou, ICntrl=  3107 FMM=F I1Cent=   0 AccDes= 0.00D+00.
 CoulSu:  requested number of processors reduced to:  24 ShMem   1 Linda.
 CoulSu:  requested number of processors reduced to:  24 ShMem   1 Linda.
 CalDSu:  requested number of processors reduced to:  32 ShMem   1 Linda.
 Calling FoFCou, ICntrl=  3107 FMM=F I1Cent=   0 AccDes= 0.00D+00.
 CoulSu:  requested number of processors reduced to:  24 ShMem   1 Linda.
 CoulSu:  requested number of processors reduced to:  24 ShMem   1 Linda.
 CalDSu:  requested number of processors reduced to:  32 ShMem   1 Linda.
 Calling FoFCou, ICntrl=  3107 FMM=F I1Cent=   0 AccDes= 0.00D+00.
 CoulSu:  requested number of processors reduced to:  24 ShMem   1 Linda.
 CoulSu:  requested number of processors reduced to:  24 ShMem   1 Linda.
 CalDSu:  requested number of processors reduced to:  32 ShMem   1 Linda.
 Calling FoFCou, ICntrl=  3107 FMM=F I1Cent=   0 AccDes= 0.00D+00.
 CoulSu:  requested number of processors reduced to:  24 ShMem   1 Linda.
 CoulSu:  requested number of processors reduced to:  24 ShMem   1 Linda.
 CalDSu:  requested number of processors reduced to:  32 ShMem   1 Linda.
 Calling FoFCou, ICntrl=  3107 FMM=F I1Cent=   0 AccDes= 0.00D+00.
 CoulSu:  requested number of processors reduced to:  24 ShMem   1 Linda.
 CoulSu:  requested number of processors reduced to:  24 ShMem   1 Linda.
 CalDSu:  requested number of processors reduced to:  32 ShMem   1 Linda.
 Calling FoFCou, ICntrl=  3107 FMM=F I1Cent=   0 AccDes= 0.00D+00.
 CoulSu:  requested number of processors reduced to:  24 ShMem   1 Linda.
 CoulSu:  requested number of processors reduced to:  24 ShMem   1 Linda.
 CalDSu:  requested number of processors reduced to:  32 ShMem   1 Linda.
 Calling FoFCou, ICntrl=  3107 FMM=F I1Cent=   0 AccDes= 0.00D+00.
 CoulSu:  requested number of processors reduced to:  24 ShMem   1 Linda.
 CoulSu:  requested number of processors reduced to:  24 ShMem   1 Linda.
 CalDSu:  requested number of processors reduced to:  32 ShMem   1 Linda.
 Calling FoFCou, ICntrl=  3107 FMM=F I1Cent=   0 AccDes= 0.00D+00.
 CoulSu:  requested number of processors reduced to:  24 ShMem   1 Linda.
 CoulSu:  requested number of processors reduced to:  24 ShMem   1 Linda.
 CalDSu:  requested number of processors reduced to:  32 ShMem   1 Linda.
 Calling FoFCou, ICntrl=  3107 FMM=F I1Cent=   0 AccDes= 0.00D+00.
 CoulSu:  requested number of processors reduced to:  24 ShMem   1 Linda.
 CoulSu:  requested number of processors reduced to:  24 ShMem   1 Linda.
 CalDSu:  requested number of processors reduced to:  32 ShMem   1 Linda.
 Calling FoFCou, ICntrl=  3107 FMM=F I1Cent=   0 AccDes= 0.00D+00.
 CoulSu:  requested number of processors reduced to:  24 ShMem   1 Linda.
 CoulSu:  requested number of processors reduced to:  24 ShMem   1 Linda.
 CalDSu:  requested number of processors reduced to:  32 ShMem   1 Linda.
 Calling FoFCou, ICntrl=  3107 FMM=F I1Cent=   0 AccDes= 0.00D+00.
 CoulSu:  requested number of processors reduced to:  24 ShMem   1 Linda.
 CoulSu:  requested number of processors reduced to:  24 ShMem   1 Linda.
 CalDSu:  requested number of processors reduced to:  32 ShMem   1 Linda.
 Calling FoFCou, ICntrl=  3107 FMM=F I1Cent=   0 AccDes= 0.00D+00.
 CoulSu:  requested number of processors reduced to:  24 ShMem   1 Linda.
 CoulSu:  requested number of processors reduced to:  24 ShMem   1 Linda.
 CalDSu:  requested number of processors reduced to:  32 ShMem   1 Linda.
 Calling FoFCou, ICntrl=  3107 FMM=F I1Cent=   0 AccDes= 0.00D+00.
 CoulSu:  requested number of processors reduced to:  24 ShMem   1 Linda.
 CoulSu:  requested number of processors reduced to:  24 ShMem   1 Linda.
 CalDSu:  requested number of processors reduced to:  32 ShMem   1 Linda.
 Calling FoFCou, ICntrl=  3107 FMM=F I1Cent=   0 AccDes= 0.00D+00.
 CoulSu:  requested number of processors reduced to:  24 ShMem   1 Linda.
 CoulSu:  requested number of processors reduced to:  24 ShMem   1 Linda.
 CalDSu:  requested number of processors reduced to:  32 ShMem   1 Linda.
 Calling FoFCou, ICntrl=  3107 FMM=F I1Cent=   0 AccDes= 0.00D+00.
 CoulSu:  requested number of processors reduced to:  24 ShMem   1 Linda.
 CoulSu:  requested number of processors reduced to:  24 ShMem   1 Linda.
 CalDSu:  requested number of processors reduced to:  32 ShMem   1 Linda.
 Calling FoFCou, ICntrl=  3107 FMM=F I1Cent=   0 AccDes= 0.00D+00.
 CoulSu:  requested number of processors reduced to:  24 ShMem   1 Linda.
 CoulSu:  requested number of processors reduced to:  24 ShMem   1 Linda.
 CalDSu:  requested number of processors reduced to:  32 ShMem   1 Linda.
 Calling FoFCou, ICntrl=  3107 FMM=F I1Cent=   0 AccDes= 0.00D+00.
 CoulSu:  requested number of processors reduced to:  24 ShMem   1 Linda.
 CoulSu:  requested number of processors reduced to:  24 ShMem   1 Linda.
 CalDSu:  requested number of processors reduced to:  32 ShMem   1 Linda.
 Calling FoFCou, ICntrl=  3107 FMM=F I1Cent=   0 AccDes= 0.00D+00.
 CoulSu:  requested number of processors reduced to:  24 ShMem   1 Linda.
 CoulSu:  requested number of processors reduced to:  24 ShMem   1 Linda.
 CalDSu:  requested number of processors reduced to:  32 ShMem   1 Linda.
 Calling FoFCou, ICntrl=  3107 FMM=F I1Cent=   0 AccDes= 0.00D+00.
 CoulSu:  requested number of processors reduced to:  24 ShMem   1 Linda.
 CoulSu:  requested number of processors reduced to:  24 ShMem   1 Linda.
 CalDSu:  requested number of processors reduced to:  32 ShMem   1 Linda.
 Calling FoFCou, ICntrl=  3107 FMM=F I1Cent=   0 AccDes= 0.00D+00.
 CoulSu:  requested number of processors reduced to:  24 ShMem   1 Linda.
 CoulSu:  requested number of processors reduced to:  24 ShMem   1 Linda.
 CalDSu:  requested number of processors reduced to:  32 ShMem   1 Linda.
 Calling FoFCou, ICntrl=  3107 FMM=F I1Cent=   0 AccDes= 0.00D+00.
 CoulSu:  requested number of processors reduced to:  24 ShMem   1 Linda.
 CoulSu:  requested number of processors reduced to:  24 ShMem   1 Linda.
 CalDSu:  requested number of processors reduced to:  32 ShMem   1 Linda.
 Calling FoFCou, ICntrl=  3107 FMM=F I1Cent=   0 AccDes= 0.00D+00.
 CoulSu:  requested number of processors reduced to:  24 ShMem   1 Linda.
 CoulSu:  requested number of processors reduced to:  24 ShMem   1 Linda.
 CalDSu:  requested number of processors reduced to:  32 ShMem   1 Linda.
 Calling FoFCou, ICntrl=  3107 FMM=F I1Cent=   0 AccDes= 0.00D+00.
 CoulSu:  requested number of processors reduced to:  24 ShMem   1 Linda.
 CoulSu:  requested number of processors reduced to:  24 ShMem   1 Linda.
 CalDSu:  requested number of processors reduced to:  32 ShMem   1 Linda.
 Calling FoFCou, ICntrl=  3107 FMM=F I1Cent=   0 AccDes= 0.00D+00.
 CoulSu:  requested number of processors reduced to:  24 ShMem   1 Linda.
 CoulSu:  requested number of processors reduced to:  24 ShMem   1 Linda.
 CalDSu:  requested number of processors reduced to:  32 ShMem   1 Linda.
 Calling FoFCou, ICntrl=  3107 FMM=F I1Cent=   0 AccDes= 0.00D+00.
 CoulSu:  requested number of processors reduced to:  24 ShMem   1 Linda.
 CoulSu:  requested number of processors reduced to:  24 ShMem   1 Linda.
 CalDSu:  requested number of processors reduced to:  32 ShMem   1 Linda.
 Calling FoFCou, ICntrl=  3107 FMM=F I1Cent=   0 AccDes= 0.00D+00.
 CoulSu:  requested number of processors reduced to:  24 ShMem   1 Linda.
 CoulSu:  requested number of processors reduced to:  24 ShMem   1 Linda.
 CalDSu:  requested number of processors reduced to:  32 ShMem   1 Linda.
 Calling FoFCou, ICntrl=  3107 FMM=F I1Cent=   0 AccDes= 0.00D+00.
 CoulSu:  requested number of processors reduced to:  24 ShMem   1 Linda.
 CoulSu:  requested number of processors reduced to:  24 ShMem   1 Linda.
 CalDSu:  requested number of processors reduced to:  32 ShMem   1 Linda.
 Calling FoFCou, ICntrl=  3107 FMM=F I1Cent=   0 AccDes= 0.00D+00.
 CoulSu:  requested number of processors reduced to:  24 ShMem   1 Linda.
 CoulSu:  requested number of processors reduced to:  24 ShMem   1 Linda.
 CalDSu:  requested number of processors reduced to:  32 ShMem   1 Linda.
 NEqPCM:  Using equilibrium solvation (IEInf=0, Eps=  78.3553, EpsInf=   1.7778)
 G2PCM: DoFxE=T DoFxN=T DoGrad=T DoDP/DQ/DG/TGxP=FFFF NFrqRd=   0 IEInf=0 SqF1=F DoCFld=F IF1Alg=4.
 CoulSu:  requested number of processors reduced to:  30 ShMem   1 Linda.
 CoulSu:  requested number of processors reduced to:  29 ShMem   1 Linda.
 CoulSu:  requested number of processors reduced to:  30 ShMem   1 Linda.
 CoulSu:  requested number of processors reduced to:  30 ShMem   1 Linda.
 CoulSu:  requested number of processors reduced to:  29 ShMem   1 Linda.
 CoulSu:  requested number of processors reduced to:  30 ShMem   1 Linda.
 CoulSu:  requested number of processors reduced to:  29 ShMem   1 Linda.
 CoulSu:  requested number of processors reduced to:  29 ShMem   1 Linda.
 CoulSu:  requested number of processors reduced to:  29 ShMem   1 Linda.
 CoulSu:  requested number of processors reduced to:  29 ShMem   1 Linda.
 CoulSu:  requested number of processors reduced to:  29 ShMem   1 Linda.
 CoulSu:  requested number of processors reduced to:  29 ShMem   1 Linda.
 CoulSu:  requested number of processors reduced to:  29 ShMem   1 Linda.
 CoulSu:  requested number of processors reduced to:  29 ShMem   1 Linda.
 CoulSu:  requested number of processors reduced to:  29 ShMem   1 Linda.
 CoulSu:  requested number of processors reduced to:  29 ShMem   1 Linda.
 CoulSu:  requested number of processors reduced to:  29 ShMem   1 Linda.
 CoulSu:  requested number of processors reduced to:  29 ShMem   1 Linda.
 CoulSu:  requested number of processors reduced to:  29 ShMem   1 Linda.
 CoulSu:  requested number of processors reduced to:  29 ShMem   1 Linda.
 CoulSu:  requested number of processors reduced to:  29 ShMem   1 Linda.
 CoulSu:  requested number of processors reduced to:  29 ShMem   1 Linda.
 CoulSu:  requested number of processors reduced to:  29 ShMem   1 Linda.
 CoulSu:  requested number of processors reduced to:  29 ShMem   1 Linda.
 CoulSu:  requested number of processors reduced to:  29 ShMem   1 Linda.
 CoulSu:  requested number of processors reduced to:  29 ShMem   1 Linda.
 CoulSu:  requested number of processors reduced to:  29 ShMem   1 Linda.
 CoulSu:  requested number of processors reduced to:  29 ShMem   1 Linda.
 CoulSu:  requested number of processors reduced to:  29 ShMem   1 Linda.
 CoulSu:  requested number of processors reduced to:  29 ShMem   1 Linda.
 CoulSu:  requested number of processors reduced to:  29 ShMem   1 Linda.
 CoulSu:  requested number of processors reduced to:  29 ShMem   1 Linda.
 CoulSu:  requested number of processors reduced to:  29 ShMem   1 Linda.
 CoulSu:  requested number of processors reduced to:  29 ShMem   1 Linda.
 CoulSu:  requested number of processors reduced to:  29 ShMem   1 Linda.
 CoulSu:  requested number of processors reduced to:  29 ShMem   1 Linda.
 CoulSu:  requested number of processors reduced to:  29 ShMem   1 Linda.
 CoulSu:  requested number of processors reduced to:  29 ShMem   1 Linda.
 CoulSu:  requested number of processors reduced to:  29 ShMem   1 Linda.
 CoulSu:  requested number of processors reduced to:  29 ShMem   1 Linda.
 CoulSu:  requested number of processors reduced to:  29 ShMem   1 Linda.
 CoulSu:  requested number of processors reduced to:  29 ShMem   1 Linda.
 CoulSu:  requested number of processors reduced to:  29 ShMem   1 Linda.
 CoulSu:  requested number of processors reduced to:  29 ShMem   1 Linda.
 CoulSu:  requested number of processors reduced to:  29 ShMem   1 Linda.
 CoulSu:  requested number of processors reduced to:  29 ShMem   1 Linda.
 CoulSu:  requested number of processors reduced to:  29 ShMem   1 Linda.
 CoulSu:  requested number of processors reduced to:  29 ShMem   1 Linda.
 CoulSu:  requested number of processors reduced to:  29 ShMem   1 Linda.
 CoulSu:  requested number of processors reduced to:  29 ShMem   1 Linda.
 CoulSu:  requested number of processors reduced to:  29 ShMem   1 Linda.
 CoulSu:  requested number of processors reduced to:  29 ShMem   1 Linda.
 CoulSu:  requested number of processors reduced to:  29 ShMem   1 Linda.
 CoulSu:  requested number of processors reduced to:  29 ShMem   1 Linda.
 CoulSu:  requested number of processors reduced to:  29 ShMem   1 Linda.
 CoulSu:  requested number of processors reduced to:  29 ShMem   1 Linda.
 CoulSu:  requested number of processors reduced to:  29 ShMem   1 Linda.
 CoulSu:  requested number of processors reduced to:  29 ShMem   1 Linda.
 CoulSu:  requested number of processors reduced to:  29 ShMem   1 Linda.
 CoulSu:  requested number of processors reduced to:  29 ShMem   1 Linda.
 CoulSu:  requested number of processors reduced to:  29 ShMem   1 Linda.
 CoulSu:  requested number of processors reduced to:  29 ShMem   1 Linda.
 CoulSu:  requested number of processors reduced to:  29 ShMem   1 Linda.
 CoulSu:  requested number of processors reduced to:  29 ShMem   1 Linda.
 CoulSu:  requested number of processors reduced to:  29 ShMem   1 Linda.
 CoulSu:  requested number of processors reduced to:  29 ShMem   1 Linda.
 CoulSu:  requested number of processors reduced to:  29 ShMem   1 Linda.
 CoulSu:  requested number of processors reduced to:  29 ShMem   1 Linda.
 CoulSu:  requested number of processors reduced to:  29 ShMem   1 Linda.
 CoulSu:  requested number of processors reduced to:  29 ShMem   1 Linda.
 CoulSu:  requested number of processors reduced to:  29 ShMem   1 Linda.
 CoulSu:  requested number of processors reduced to:  29 ShMem   1 Linda.
 CoulSu:  requested number of processors reduced to:  29 ShMem   1 Linda.
 CoulSu:  requested number of processors reduced to:  29 ShMem   1 Linda.
 CoulSu:  requested number of processors reduced to:  29 ShMem   1 Linda.
 CoulSu:  requested number of processors reduced to:  29 ShMem   1 Linda.
 CoulSu:  requested number of processors reduced to:  29 ShMem   1 Linda.
 CoulSu:  requested number of processors reduced to:  29 ShMem   1 Linda.
 CoulSu:  requested number of processors reduced to:  29 ShMem   1 Linda.
 CoulSu:  requested number of processors reduced to:  29 ShMem   1 Linda.
 CoulSu:  requested number of processors reduced to:  29 ShMem   1 Linda.
 CoulSu:  requested number of processors reduced to:  29 ShMem   1 Linda.
 CoulSu:  requested number of processors reduced to:  29 ShMem   1 Linda.
 CoulSu:  requested number of processors reduced to:  29 ShMem   1 Linda.
 CoulSu:  requested number of processors reduced to:  29 ShMem   1 Linda.
 CoulSu:  requested number of processors reduced to:  29 ShMem   1 Linda.
 CoulSu:  requested number of processors reduced to:  25 ShMem   1 Linda.
 CoulSu:  requested number of processors reduced to:  26 ShMem   1 Linda.
 CoulSu:  requested number of processors reduced to:  34 ShMem   1 Linda.
 CoulSu:  requested number of processors reduced to:  35 ShMem   1 Linda.
 CoulSu:  requested number of processors reduced to:  25 ShMem   1 Linda.
 CoulSu:  requested number of processors reduced to:  26 ShMem   1 Linda.
 End of G2Drv F.D. properties file   721 does not exist.
 End of G2Drv F.D. properties file   722 does not exist.
 End of G2Drv F.D. properties file   788 does not exist.
          IDoAtm=1111111111111111111111111111111111111111
 NEqPCM:  Using equilibrium solvation (IEInf=0, Eps=  78.3553, EpsInf=   1.7778)
          Differentiating once with respect to electric field.
                with respect to dipole field.
          Differentiating once with respect to nuclear coordinates.
 CalDSu exits because no D1Ps are significant.
 CalDSu exits because no D1Ps are significant.
          There are   123 degrees of freedom in the 1st order CPHF.  IDoFFX=6 NUNeed=     3.
    121 vectors produced by pass  0 Test12= 6.87D-14 1.00D-09 XBig12= 5.37D+02 1.83D+01.
 AX will form     2 AO Fock derivatives at one time.
    120 vectors produced by pass  1 Test12= 6.87D-14 1.00D-09 XBig12= 3.79D+01 8.66D-01.
    120 vectors produced by pass  2 Test12= 6.87D-14 1.00D-09 XBig12= 1.19D+00 1.01D-01.
    120 vectors produced by pass  3 Test12= 6.87D-14 1.00D-09 XBig12= 1.94D-02 9.90D-03.
    120 vectors produced by pass  4 Test12= 6.87D-14 1.00D-09 XBig12= 2.20D-04 1.14D-03.
    120 vectors produced by pass  5 Test12= 6.87D-14 1.00D-09 XBig12= 1.84D-06 8.85D-05.
    119 vectors produced by pass  6 Test12= 6.87D-14 1.00D-09 XBig12= 1.19D-08 1.09D-05.
     73 vectors produced by pass  7 Test12= 6.87D-14 1.00D-09 XBig12= 6.29D-11 6.55D-07.
      6 vectors produced by pass  8 Test12= 6.87D-14 1.00D-09 XBig12= 3.16D-13 3.53D-08.
      3 vectors produced by pass  9 Test12= 6.87D-14 1.00D-09 XBig12= 1.59D-15 3.72D-09.
 InvSVY:  IOpt=1 It=  1 EMax= 6.49D-15
 Solved reduced A of dimension   922 with   123 vectors.
 Isotropic polarizability for W=    0.000000      516.87 Bohr**3.
 End of Minotr F.D. properties file   721 does not exist.
 End of Minotr F.D. properties file   722 does not exist.
 End of Minotr F.D. properties file   788 does not exist.

 **********************************************************************

            Population analysis using the SCF Density.

 **********************************************************************

 Orbital symmetries:
       Occupied  (A) (A) (A) (A) (A) (A) (A) (A) (A) (A) (A) (A)
                 (A) (A) (A) (A) (A) (A) (A) (A) (A) (A) (A) (A)
                 (A) (A) (A) (A) (A) (A) (A) (A) (A) (A) (A) (A)
                 (A) (A) (A) (A) (A) (A) (A) (A) (A) (A) (A) (A)
                 (A) (A) (A) (A) (A) (A) (A) (A) (A) (A) (A) (A)
                 (A) (A) (A) (A) (A) (A) (A) (A) (A) (A) (A) (A)
                 (A) (A) (A) (A) (A) (A) (A) (A) (A) (A) (A) (A)
                 (A) (A) (A) (A) (A) (A) (A) (A) (A) (A) (A) (A)
                 (A) (A) (A) (A) (A) (A) (A) (A) (A) (A) (A) (A)
                 (A) (A) (A) (A) (A)
       Virtual   (A) (A) (A) (A) (A) (A) (A) (A) (A) (A) (A) (A)
                 (A) (A) (A) (A) (A) (A) (A) (A) (A) (A) (A) (A)
                 (A) (A) (A) (A) (A) (A) (A) (A) (A) (A) (A) (A)
                 (A) (A) (A) (A) (A) (A) (A) (A) (A) (A) (A) (A)
                 (A) (A) (A) (A) (A) (A) (A) (A) (A) (A) (A) (A)
                 (A) (A) (A) (A) (A) (A) (A) (A) (A) (A) (A) (A)
                 (A) (A) (A) (A) (A) (A) (A) (A) (A) (A) (A) (A)
                 (A) (A) (A) (A) (A) (A) (A) (A) (A) (A) (A) (A)
                 (A) (A) (A) (A) (A) (A) (A) (A) (A) (A) (A) (A)
                 (A) (A) (A) (A) (A) (A) (A) (A) (A) (A) (A) (A)
                 (A) (A) (A) (A) (A) (A) (A) (A) (A) (A) (A) (A)
                 (A) (A) (A) (A) (A) (A) (A) (A) (A) (A) (A) (A)
                 (A) (A) (A) (A) (A) (A) (A) (A) (A) (A) (A) (A)
                 (A) (A) (A) (A) (A) (A) (A) (A) (A) (A) (A) (A)
                 (A) (A) (A) (A) (A) (A) (A) (A) (A) (A) (A) (A)
                 (A) (A) (A) (A) (A) (A) (A) (A) (A) (A) (A) (A)
                 (A) (A) (A) (A) (A) (A) (A) (A) (A) (A) (A) (A)
                 (A) (A) (A) (A) (A) (A) (A) (A) (A) (A) (A) (A)
                 (A) (A) (A) (A) (A) (A) (A) (A) (A) (A) (A) (A)
                 (A) (A) (A) (A) (A) (A) (A) (A) (A) (A) (A) (A)
                 (A) (A) (A) (A) (A) (A) (A) (A) (A) (A) (A) (A)
                 (A) (A) (A) (A) (A) (A) (A) (A) (A) (A) (A) (A)
                 (A) (A) (A) (A) (A) (A) (A) (A) (A) (A) (A) (A)
                 (A) (A) (A) (A) (A) (A) (A) (A) (A) (A) (A) (A)
                 (A) (A) (A) (A) (A) (A) (A) (A) (A) (A) (A) (A)
                 (A) (A) (A) (A) (A) (A) (A) (A) (A) (A) (A) (A)
                 (A) (A) (A) (A) (A) (A) (A) (A) (A) (A) (A) (A)
                 (A) (A) (A) (A) (A) (A) (A) (A) (A) (A) (A) (A)
                 (A) (A) (A) (A) (A) (A) (A) (A) (A) (A) (A) (A)
                 (A) (A) (A) (A) (A) (A) (A) (A) (A) (A) (A) (A)
                 (A) (A) (A) (A) (A) (A) (A) (A) (A) (A) (A) (A)
                 (A) (A) (A) (A) (A) (A) (A) (A) (A) (A) (A) (A)
                 (A) (A) (A) (A) (A) (A) (A) (A) (A) (A) (A) (A)
                 (A) (A) (A) (A) (A) (A) (A) (A) (A) (A) (A) (A)
                 (A) (A) (A) (A) (A) (A) (A) (A) (A) (A) (A) (A)
                 (A) (A) (A) (A) (A) (A) (A) (A) (A) (A) (A) (A)
                 (A) (A) (A) (A) (A) (A) (A) (A) (A) (A) (A) (A)
                 (A) (A) (A) (A) (A) (A) (A) (A) (A) (A) (A) (A)
                 (A) (A) (A) (A) (A) (A) (A) (A) (A) (A) (A) (A)
                 (A) (A) (A) (A) (A) (A) (A) (A) (A) (A) (A) (A)
                 (A) (A) (A) (A) (A) (A) (A) (A) (A) (A) (A) (A)
                 (A) (A) (A) (A) (A) (A) (A) (A) (A) (A) (A) (A)
                 (A) (A) (A) (A) (A) (A) (A) (A) (A) (A) (A) (A)
                 (A) (A) (A) (A) (A) (A) (A) (A) (A) (A) (A) (A)
                 (A) (A) (A) (A) (A) (A) (A) (A) (A) (A) (A) (A)
                 (A) (A) (A) (A) (A) (A) (A) (A) (A) (A) (A) (A)
                 (A) (A) (A) (A) (A) (A) (A) (A) (A) (A) (A) (A)
                 (A) (A) (A) (A) (A) (A) (A) (A) (A) (A) (A) (A)
                 (A) (A) (A) (A) (A) (A) (A) (A) (A) (A) (A) (A)
                 (A) (A) (A) (A) (A) (A) (A) (A) (A) (A) (A) (A)
                 (A) (A) (A) (A) (A) (A) (A) (A)
 The electronic state is 1-A.
 Alpha  occ. eigenvalues --  -89.12237 -89.12158 -19.22434 -19.20083 -19.16274
 Alpha  occ. eigenvalues --  -19.16199 -19.16194 -19.15916 -19.15915 -19.15890
 Alpha  occ. eigenvalues --  -14.48526 -14.46390 -14.39636 -10.35158 -10.33288
 Alpha  occ. eigenvalues --  -10.30117 -10.29902 -10.29642 -10.28609 -10.28481
 Alpha  occ. eigenvalues --  -10.28254 -10.27102 -10.26413 -10.26029 -10.25972
 Alpha  occ. eigenvalues --  -10.25765 -10.25739 -10.25356 -10.25317  -8.18387
 Alpha  occ. eigenvalues --   -8.18255  -6.14744  -6.14734  -6.14660  -6.14610
 Alpha  occ. eigenvalues --   -6.14598  -6.14547  -1.20076  -1.19787  -1.17153
 Alpha  occ. eigenvalues --   -1.15838  -1.12346  -1.05732  -1.05492  -1.05316
 Alpha  occ. eigenvalues --   -1.05271  -1.01558  -0.98501  -0.96829  -0.93330
 Alpha  occ. eigenvalues --   -0.90088  -0.86271  -0.84991  -0.84479  -0.81614
 Alpha  occ. eigenvalues --   -0.78381  -0.75247  -0.74449  -0.71527  -0.69785
 Alpha  occ. eigenvalues --   -0.68742  -0.68035  -0.66128  -0.64590  -0.63216
 Alpha  occ. eigenvalues --   -0.60702  -0.60051  -0.58883  -0.58764  -0.58079
 Alpha  occ. eigenvalues --   -0.56493  -0.55876  -0.55211  -0.53363  -0.53030
 Alpha  occ. eigenvalues --   -0.52702  -0.52299  -0.52058  -0.51899  -0.51535
 Alpha  occ. eigenvalues --   -0.51275  -0.51007  -0.49991  -0.49407  -0.48071
 Alpha  occ. eigenvalues --   -0.47732  -0.47288  -0.46409  -0.45924  -0.44618
 Alpha  occ. eigenvalues --   -0.43187  -0.42381  -0.41699  -0.41184  -0.40581
 Alpha  occ. eigenvalues --   -0.40465  -0.40233  -0.39664  -0.39384  -0.37271
 Alpha  occ. eigenvalues --   -0.36857  -0.36313  -0.35931  -0.35669  -0.35039
 Alpha  occ. eigenvalues --   -0.32915  -0.32711  -0.32626  -0.31989  -0.31658
 Alpha  occ. eigenvalues --   -0.31271  -0.28473  -0.24651
 Alpha virt. eigenvalues --   -0.07015  -0.00013   0.01445   0.01767   0.02187
 Alpha virt. eigenvalues --    0.02359   0.03022   0.03499   0.03881   0.04742
 Alpha virt. eigenvalues --    0.05138   0.05358   0.05764   0.05942   0.06547
 Alpha virt. eigenvalues --    0.06698   0.07139   0.07389   0.07544   0.08513
 Alpha virt. eigenvalues --    0.08718   0.08773   0.09295   0.09505   0.09949
 Alpha virt. eigenvalues --    0.10718   0.10936   0.11168   0.11543   0.11719
 Alpha virt. eigenvalues --    0.11989   0.12415   0.12579   0.13131   0.13671
 Alpha virt. eigenvalues --    0.13828   0.14160   0.14330   0.14390   0.14557
 Alpha virt. eigenvalues --    0.14751   0.14983   0.15130   0.15375   0.15681
 Alpha virt. eigenvalues --    0.16155   0.16597   0.16781   0.16858   0.17023
 Alpha virt. eigenvalues --    0.17231   0.17712   0.17872   0.18128   0.18211
 Alpha virt. eigenvalues --    0.18373   0.18612   0.19102   0.19386   0.19695
 Alpha virt. eigenvalues --    0.20110   0.20327   0.20535   0.20664   0.21061
 Alpha virt. eigenvalues --    0.21377   0.21489   0.21771   0.21889   0.22297
 Alpha virt. eigenvalues --    0.22894   0.22997   0.23118   0.23338   0.23852
 Alpha virt. eigenvalues --    0.24255   0.24457   0.24778   0.25003   0.25229
 Alpha virt. eigenvalues --    0.25359   0.25590   0.26003   0.26594   0.26928
 Alpha virt. eigenvalues --    0.27125   0.27518   0.27636   0.27904   0.27989
 Alpha virt. eigenvalues --    0.28173   0.28618   0.28878   0.28935   0.29316
 Alpha virt. eigenvalues --    0.30033   0.30430   0.30562   0.30623   0.30727
 Alpha virt. eigenvalues --    0.31027   0.31274   0.31379   0.31920   0.32293
 Alpha virt. eigenvalues --    0.32538   0.32727   0.32855   0.33044   0.33279
 Alpha virt. eigenvalues --    0.33557   0.33635   0.33897   0.34355   0.34489
 Alpha virt. eigenvalues --    0.34805   0.34958   0.35024   0.35265   0.35587
 Alpha virt. eigenvalues --    0.35670   0.36076   0.36534   0.36846   0.37104
 Alpha virt. eigenvalues --    0.37333   0.37709   0.37917   0.38300   0.38631
 Alpha virt. eigenvalues --    0.39055   0.39356   0.39524   0.39864   0.40106
 Alpha virt. eigenvalues --    0.40884   0.41140   0.41540   0.41955   0.42565
 Alpha virt. eigenvalues --    0.42712   0.42780   0.43693   0.43823   0.44314
 Alpha virt. eigenvalues --    0.44533   0.44965   0.45757   0.45933   0.46136
 Alpha virt. eigenvalues --    0.46209   0.46865   0.47271   0.48029   0.49103
 Alpha virt. eigenvalues --    0.49439   0.49633   0.51192   0.51692   0.51975
 Alpha virt. eigenvalues --    0.53507   0.54267   0.55222   0.55725   0.56746
 Alpha virt. eigenvalues --    0.57376   0.57846   0.58012   0.58935   0.59533
 Alpha virt. eigenvalues --    0.59880   0.59999   0.60617   0.60668   0.61364
 Alpha virt. eigenvalues --    0.62162   0.62728   0.63572   0.64421   0.64670
 Alpha virt. eigenvalues --    0.65335   0.65452   0.65912   0.66230   0.67501
 Alpha virt. eigenvalues --    0.67581   0.68156   0.68166   0.68746   0.69129
 Alpha virt. eigenvalues --    0.69491   0.69861   0.70045   0.70802   0.71455
 Alpha virt. eigenvalues --    0.72416   0.72795   0.73372   0.73657   0.73852
 Alpha virt. eigenvalues --    0.74898   0.75318   0.76957   0.77797   0.78803
 Alpha virt. eigenvalues --    0.79168   0.79459   0.79905   0.80248   0.80785
 Alpha virt. eigenvalues --    0.82280   0.82502   0.82940   0.83601   0.84187
 Alpha virt. eigenvalues --    0.85320   0.86174   0.86814   0.87591   0.88600
 Alpha virt. eigenvalues --    0.89582   0.90106   0.90663   0.91519   0.92205
 Alpha virt. eigenvalues --    0.92473   0.93285   0.93566   0.94014   0.94597
 Alpha virt. eigenvalues --    0.95732   0.96419   0.96789   0.96849   0.97680
 Alpha virt. eigenvalues --    0.98029   0.98318   0.99161   0.99297   1.00005
 Alpha virt. eigenvalues --    1.00533   1.01082   1.02164   1.02279   1.03091
 Alpha virt. eigenvalues --    1.03396   1.04717   1.05240   1.05802   1.05985
 Alpha virt. eigenvalues --    1.06832   1.07203   1.07529   1.08057   1.08341
 Alpha virt. eigenvalues --    1.09084   1.09362   1.10443   1.11306   1.12267
 Alpha virt. eigenvalues --    1.12440   1.12914   1.13933   1.14186   1.14246
 Alpha virt. eigenvalues --    1.14887   1.15899   1.16495   1.17016   1.18351
 Alpha virt. eigenvalues --    1.18948   1.19914   1.20569   1.20799   1.21063
 Alpha virt. eigenvalues --    1.22476   1.23293   1.23426   1.23747   1.24212
 Alpha virt. eigenvalues --    1.24930   1.25086   1.25872   1.25912   1.26552
 Alpha virt. eigenvalues --    1.27462   1.28032   1.28282   1.28532   1.29126
 Alpha virt. eigenvalues --    1.29899   1.30249   1.30629   1.31241   1.32459
 Alpha virt. eigenvalues --    1.33144   1.33401   1.34201   1.34803   1.35020
 Alpha virt. eigenvalues --    1.35148   1.36040   1.37319   1.37368   1.38814
 Alpha virt. eigenvalues --    1.40946   1.44184   1.44878   1.45804   1.46857
 Alpha virt. eigenvalues --    1.48050   1.50213   1.50447   1.54322   1.54669
 Alpha virt. eigenvalues --    1.55961   1.56984   1.57517   1.58836   1.59588
 Alpha virt. eigenvalues --    1.60355   1.61064   1.61336   1.62424   1.62909
 Alpha virt. eigenvalues --    1.63222   1.63606   1.64706   1.65279   1.65685
 Alpha virt. eigenvalues --    1.66409   1.67100   1.68614   1.69209   1.69303
 Alpha virt. eigenvalues --    1.69948   1.70131   1.71091   1.72112   1.72771
 Alpha virt. eigenvalues --    1.73866   1.75065   1.76686   1.76777   1.77801
 Alpha virt. eigenvalues --    1.78198   1.80247   1.81727   1.84379   1.84686
 Alpha virt. eigenvalues --    1.84911   1.85525   1.86031   1.88860   1.89316
 Alpha virt. eigenvalues --    1.89637   1.91089   1.91999   1.92505   1.92592
 Alpha virt. eigenvalues --    1.93931   1.94447   1.96162   1.97678   1.98200
 Alpha virt. eigenvalues --    1.98905   1.99302   1.99763   2.00064   2.00739
 Alpha virt. eigenvalues --    2.01233   2.02357   2.03137   2.03409   2.04077
 Alpha virt. eigenvalues --    2.04393   2.05635   2.07402   2.07943   2.08888
 Alpha virt. eigenvalues --    2.10032   2.11721   2.13168   2.13556   2.14393
 Alpha virt. eigenvalues --    2.14854   2.15154   2.15578   2.16678   2.18063
 Alpha virt. eigenvalues --    2.18669   2.20017   2.20426   2.23342   2.25548
 Alpha virt. eigenvalues --    2.26111   2.29196   2.30969   2.31197   2.32406
 Alpha virt. eigenvalues --    2.33174   2.38259   2.38295   2.39981   2.42192
 Alpha virt. eigenvalues --    2.44037   2.44724   2.45994   2.48120   2.50688
 Alpha virt. eigenvalues --    2.54380   2.55001   2.57017   2.58367   2.60263
 Alpha virt. eigenvalues --    2.62605   2.64289   2.65815   2.66549   2.69442
 Alpha virt. eigenvalues --    2.69629   2.70066   2.71793   2.72842   2.74144
 Alpha virt. eigenvalues --    2.75034   2.76228   2.77273   2.77526   2.78430
 Alpha virt. eigenvalues --    2.79724   2.80281   2.80564   2.81538   2.83028
 Alpha virt. eigenvalues --    2.84456   2.85581   2.85792   2.86031   2.86327
 Alpha virt. eigenvalues --    2.86628   2.87321   2.87565   2.89176   2.90065
 Alpha virt. eigenvalues --    2.90695   2.91679   2.91796   2.91839   2.92044
 Alpha virt. eigenvalues --    2.92255   2.92556   2.93166   2.94208   2.94566
 Alpha virt. eigenvalues --    2.94899   2.95411   2.95588   2.95931   2.96566
 Alpha virt. eigenvalues --    2.97055   2.97680   2.98342   2.98637   2.99222
 Alpha virt. eigenvalues --    3.00041   3.00588   3.01474   3.03111   3.04442
 Alpha virt. eigenvalues --    3.05516   3.06970   3.07624   3.08415   3.09501
 Alpha virt. eigenvalues --    3.10761   3.12369   3.13958   3.14796   3.15190
 Alpha virt. eigenvalues --    3.17119   3.18400   3.19265   3.22124   3.23083
 Alpha virt. eigenvalues --    3.23817   3.23992   3.24935   3.25896   3.27319
 Alpha virt. eigenvalues --    3.27479   3.28280   3.29686   3.30313   3.31251
 Alpha virt. eigenvalues --    3.36987   3.37277   3.38251   3.40096   3.42008
 Alpha virt. eigenvalues --    3.43773   3.46648   3.47333   3.49140   3.50762
 Alpha virt. eigenvalues --    3.51074   3.53728   3.54759   3.58725   3.59161
 Alpha virt. eigenvalues --    3.61791   3.62780   3.66862   3.67568   3.68123
 Alpha virt. eigenvalues --    3.69747   3.70364   3.71308   3.73749   3.74283
 Alpha virt. eigenvalues --    3.78521   3.87032   3.87519   3.88741   3.89804
 Alpha virt. eigenvalues --    3.94548   4.00738   4.01541   4.06232   4.07707
 Alpha virt. eigenvalues --    4.08891   4.12909   4.19563   4.23680   4.26191
 Alpha virt. eigenvalues --    4.29067   4.35062   4.35579   4.43872   4.72079
 Alpha virt. eigenvalues --    4.84415   4.89453   4.93231   4.93464   5.02495
 Alpha virt. eigenvalues --    5.08411   5.09187   5.10418   5.12154   5.12214
 Alpha virt. eigenvalues --    5.13896   5.14372   5.14534   5.14883   5.16474
 Alpha virt. eigenvalues --    5.17138   5.18433   5.19633   5.20785   5.21582
 Alpha virt. eigenvalues --    5.22620   5.27162   5.36064   5.36636   5.39930
 Alpha virt. eigenvalues --    5.42428   5.48772   5.56817   5.64545   5.88901
 Alpha virt. eigenvalues --    5.91453   8.28851   8.32291  17.47692  17.48510
 Alpha virt. eigenvalues --   17.49339  17.52154  17.58010  17.61349  23.58450
 Alpha virt. eigenvalues --   23.70707  23.83054  23.95170  23.97931  24.00894
 Alpha virt. eigenvalues --   24.02317  24.02930  24.03068  24.09474  24.11386
 Alpha virt. eigenvalues --   24.15414  24.19205  24.23995  24.26606  24.27650
 Alpha virt. eigenvalues --   35.63715  35.70785  35.72184  49.93967  49.95323
 Alpha virt. eigenvalues --   49.96643  49.98240  50.02940  50.04068  50.05656
 Alpha virt. eigenvalues --   50.10198 189.30852 189.34770
          Condensed to atoms (all electrons):
               1          2          3          4          5          6
     1  C   11.458594  -0.463765   0.177826  -0.761037   1.544584  -3.647951
     2  C   -0.463765   9.404648   2.526484   0.879167   1.246618   0.601660
     3  C    0.177826   2.526484  16.283882   6.342040   2.266169  -2.019840
     4  C   -0.761037   0.879167   6.342040  19.130275   0.136460  -2.745211
     5  C    1.544584   1.246618   2.266169   0.136460  11.426745  -3.450763
     6  C   -3.647951   0.601660  -2.019840  -2.745211  -3.450763  17.972127
     7  C    0.095403  -4.200486  -3.666137  -1.671021  -1.836574  -0.819754
     8  C   -2.782478  -1.239435  -2.499851  -3.037457  -4.751747   5.076113
     9  H   -0.001723   0.069237   0.091744   0.201388   0.641147  -0.137606
    10  C   -1.290388  -1.140646  -4.921453  -7.694486   0.286789   0.934807
    11  C    1.315100  -1.270286  -8.085685  -3.222945  -1.482880  -0.974423
    12  H   -0.011240  -0.030159  -0.082966  -0.055420  -0.293880   0.154378
    13  H    0.008829  -0.012225  -0.225757   0.074339  -0.093898   0.009192
    14  N    0.658555  -0.549805  -0.130109  -0.306457  -0.211637  -0.420558
    15  N   -0.910717   0.457355  -0.054409   0.211094   0.102776   0.523397
    16  H   -0.108752   0.003846   0.105491  -0.011549   0.039260  -0.042489
    17  C   -0.528786  -0.189286  -0.365276  -0.140660  -0.246826   0.039475
    18  C   -0.111824   0.167060   0.142700   0.098624  -0.037784  -0.127420
    19  C    0.341616  -0.076625   0.017669  -0.048951   0.199875   0.146722
    20  C   -0.238472  -0.002509  -0.033313  -0.006805  -0.011318   0.038914
    21  H    0.002469   0.018241   0.001441   0.002286   0.000325   0.000550
    22  C    0.418958   0.042059   0.048316   0.002799   0.046363  -0.108587
    23  H   -0.034555   0.040818  -0.004139   0.010502  -0.003073   0.081664
    24  C    0.048587   0.016836   0.012559   0.005242   0.002201   0.050172
    25  H   -0.003753  -0.001788  -0.001066  -0.000456  -0.000150   0.000233
    26  H    0.003203  -0.002366   0.000353  -0.000268   0.000173  -0.007896
    27  N   -0.000796  -0.000031  -0.000058  -0.000013  -0.000006  -0.000118
    28  H   -0.000472   0.000000  -0.000062  -0.000010  -0.000015   0.000172
    29  H    0.000912   0.000124   0.000065   0.000019   0.000036  -0.000177
    30  O   -0.181196   0.409229  -0.114716  -0.014834  -0.014045   0.042497
    31  O    0.010853  -0.031277   0.186724   0.038777   0.020994   0.007383
    32  H   -0.013605   0.006207  -0.101095  -0.010873  -0.013204   0.016662
    33  S   -0.018727  -0.033490  -0.238227  -1.055395   0.406824  -0.173808
    34  O    0.000630   0.003870   0.003895   0.045390  -0.000419  -0.005543
    35  O   -0.000687  -0.006627  -0.013452  -0.050897  -0.008282  -0.018853
    36  O    0.000642  -0.000740   0.003959   0.085826  -0.002194  -0.002487
    37  S    1.188839  -0.493282  -0.187904  -1.045923   0.078726  -4.132108
    38  O   -0.050896  -0.026023  -0.016983  -0.009384  -0.081558  -0.097773
    39  O    0.220262   0.003617   0.125659   0.005560   0.417424  -0.030311
    40  O   -0.052610  -0.026182  -0.014770  -0.006402  -0.072963  -0.104980
               7          8          9         10         11         12
     1  C    0.095403  -2.782478  -0.001723  -1.290388   1.315100  -0.011240
     2  C   -4.200486  -1.239435   0.069237  -1.140646  -1.270286  -0.030159
     3  C   -3.666137  -2.499851   0.091744  -4.921453  -8.085685  -0.082966
     4  C   -1.671021  -3.037457   0.201388  -7.694486  -3.222945  -0.055420
     5  C   -1.836574  -4.751747   0.641147   0.286789  -1.482880  -0.293880
     6  C   -0.819754   5.076113  -0.137606   0.934807  -0.974423   0.154378
     7  C   21.361301   0.054123  -0.043712  -3.493620   1.601142   0.076696
     8  C    0.054123  17.787549  -0.402405  -1.712601  -1.040049   0.662097
     9  H   -0.043712  -0.402405   0.553285   0.045727  -0.022242  -0.045514
    10  C   -3.493620  -1.712601   0.045727  27.693095  -0.400499  -0.028886
    11  C    1.601142  -1.040049  -0.022242  -0.400499  19.175743   0.031832
    12  H    0.076696   0.662097  -0.045514  -0.028886   0.031832   0.542360
    13  H   -0.234928   0.057602  -0.002680   0.092521   0.696758   0.011184
    14  N    0.081794   0.027373  -0.012105  -0.006964  -0.003333  -0.000451
    15  N   -0.224058   0.100958   0.013250   0.060063  -0.065321  -0.000272
    16  H   -0.120196  -0.006269   0.001757   0.026574  -0.042748  -0.000335
    17  C    0.014988  -0.079245  -0.004984  -0.022499   0.012399  -0.000103
    18  C   -0.038376   0.049396  -0.003311   0.003269  -0.018333   0.000416
    19  C    0.048036  -0.026508   0.005780  -0.003090   0.019731  -0.000320
    20  C   -0.005809  -0.001263  -0.000073  -0.000149  -0.000434   0.000007
    21  H    0.003365   0.000596  -0.000041  -0.000429   0.000734   0.000008
    22  C   -0.003486   0.002751  -0.000472  -0.000925   0.000074   0.000057
    23  H   -0.001656   0.005328   0.000627   0.002981  -0.000763  -0.000060
    24  C    0.002538  -0.000178   0.000388   0.000160   0.000225  -0.000015
    25  H   -0.000087  -0.000073  -0.000004  -0.000017   0.000019   0.000000
    26  H   -0.000115   0.000010  -0.000053  -0.000025  -0.000006   0.000002
    27  N   -0.000002  -0.000001  -0.000001  -0.000000  -0.000000   0.000000
    28  H    0.000008  -0.000004   0.000001  -0.000000   0.000001  -0.000000
    29  H   -0.000001   0.000006  -0.000001   0.000000  -0.000000   0.000000
    30  O   -0.188896  -0.006453  -0.001082   0.008323   0.015858   0.000270
    31  O    0.224013  -0.001766   0.000062  -0.040865  -0.496795   0.000495
    32  H    0.099801   0.019970  -0.000171  -0.028555   0.061818   0.000861
    33  S   -0.109231  -0.211985   0.036120  -1.474477   0.996988  -0.162483
    34  O   -0.152821   0.038435   0.001041   0.382780  -0.273895  -0.005612
    35  O    0.105323   0.254373   0.005176  -0.619383   0.354438  -0.031966
    36  O   -0.154877   0.035980   0.000174   0.384914  -0.348428   0.006885
    37  S   -0.275000  -0.045295  -0.194625  -0.383363  -0.102416   0.032697
    38  O   -0.004336  -0.030570  -0.001469  -0.009519  -0.000769   0.000777
    39  O    0.006698   0.046184  -0.057704  -0.020132   0.007371   0.006900
    40  O   -0.004971  -0.035336  -0.000213  -0.009524  -0.000862   0.000520
              13         14         15         16         17         18
     1  C    0.008829   0.658555  -0.910717  -0.108752  -0.528786  -0.111824
     2  C   -0.012225  -0.549805   0.457355   0.003846  -0.189286   0.167060
     3  C   -0.225757  -0.130109  -0.054409   0.105491  -0.365276   0.142700
     4  C    0.074339  -0.306457   0.211094  -0.011549  -0.140660   0.098624
     5  C   -0.093898  -0.211637   0.102776   0.039260  -0.246826  -0.037784
     6  C    0.009192  -0.420558   0.523397  -0.042489   0.039475  -0.127420
     7  C   -0.234928   0.081794  -0.224058  -0.120196   0.014988  -0.038376
     8  C    0.057602   0.027373   0.100958  -0.006269  -0.079245   0.049396
     9  H   -0.002680  -0.012105   0.013250   0.001757  -0.004984  -0.003311
    10  C    0.092521  -0.006964   0.060063   0.026574  -0.022499   0.003269
    11  C    0.696758  -0.003333  -0.065321  -0.042748   0.012399  -0.018333
    12  H    0.011184  -0.000451  -0.000272  -0.000335  -0.000103   0.000416
    13  H    0.506328   0.000455  -0.001038  -0.000656  -0.000241  -0.000030
    14  N    0.000455  12.918960  -6.497209   0.255702   1.408697  -1.294583
    15  N   -0.001038  -6.497209  14.682120   0.232330  -1.866356   1.126887
    16  H   -0.000656   0.255702   0.232330   0.619551  -0.379041  -0.100437
    17  C   -0.000241   1.408697  -1.866356  -0.379041  14.716413  -0.573492
    18  C   -0.000030  -1.294583   1.126887  -0.100437  -0.573492   6.839713
    19  C    0.000250   0.627628  -0.764882   0.113288  -0.829253  -1.189992
    20  C   -0.000034  -0.413264   0.102649  -0.222544   0.695990  -0.058437
    21  H    0.000048  -0.040964   0.010128  -0.023888  -0.109501   0.439246
    22  C    0.000043  -0.068456   0.356717   0.103487  -5.668169   0.939756
    23  H   -0.000038  -0.153749   0.181886  -0.001442  -0.122429   0.037298
    24  C    0.000005   0.050310   0.026929   0.064143  -0.489365  -0.227966
    25  H   -0.000001   0.004392  -0.008911  -0.000081   0.049845  -0.058089
    26  H    0.000000   0.004346  -0.011802  -0.001637   0.049022   0.014194
    27  N   -0.000000  -0.001548   0.002528  -0.000828  -0.005277   0.035182
    28  H   -0.000000   0.000308  -0.000948  -0.000480  -0.000364   0.015909
    29  H    0.000000  -0.000937   0.001796   0.000404  -0.006596  -0.005056
    30  O    0.000519   0.252095  -0.203257   0.003127   0.003937  -0.017725
    31  O   -0.029503   0.001563   0.002121   0.003753  -0.000853  -0.000351
    32  H    0.001085  -0.014083   0.005896  -0.027258   0.007390   0.009808
    33  S   -0.118528   0.000291   0.000384   0.001741  -0.000583  -0.000078
    34  O   -0.001426   0.000001  -0.000001   0.000028  -0.000001  -0.000000
    35  O    0.001682   0.000003  -0.000003  -0.000025   0.000002   0.000000
    36  O    0.016626   0.000000   0.000001   0.000030  -0.000003   0.000000
    37  S    0.000469   0.562160  -0.387310  -0.020668   0.491994   0.053875
    38  O    0.000011   0.014148   0.006954  -0.001506   0.053918   0.000120
    39  O    0.000160  -0.097011  -0.056920   0.003928  -0.065072  -0.002334
    40  O    0.000007   0.008756   0.013842  -0.001620   0.056738   0.002139
              19         20         21         22         23         24
     1  C    0.341616  -0.238472   0.002469   0.418958  -0.034555   0.048587
     2  C   -0.076625  -0.002509   0.018241   0.042059   0.040818   0.016836
     3  C    0.017669  -0.033313   0.001441   0.048316  -0.004139   0.012559
     4  C   -0.048951  -0.006805   0.002286   0.002799   0.010502   0.005242
     5  C    0.199875  -0.011318   0.000325   0.046363  -0.003073   0.002201
     6  C    0.146722   0.038914   0.000550  -0.108587   0.081664   0.050172
     7  C    0.048036  -0.005809   0.003365  -0.003486  -0.001656   0.002538
     8  C   -0.026508  -0.001263   0.000596   0.002751   0.005328  -0.000178
     9  H    0.005780  -0.000073  -0.000041  -0.000472   0.000627   0.000388
    10  C   -0.003090  -0.000149  -0.000429  -0.000925   0.002981   0.000160
    11  C    0.019731  -0.000434   0.000734   0.000074  -0.000763   0.000225
    12  H   -0.000320   0.000007   0.000008   0.000057  -0.000060  -0.000015
    13  H    0.000250  -0.000034   0.000048   0.000043  -0.000038   0.000005
    14  N    0.627628  -0.413264  -0.040964  -0.068456  -0.153749   0.050310
    15  N   -0.764882   0.102649   0.010128   0.356717   0.181886   0.026929
    16  H    0.113288  -0.222544  -0.023888   0.103487  -0.001442   0.064143
    17  C   -0.829253   0.695990  -0.109501  -5.668169  -0.122429  -0.489365
    18  C   -1.189992  -0.058437   0.439246   0.939756   0.037298  -0.227966
    19  C   10.015238   1.368430   0.007003  -2.307643   0.401226  -1.660958
    20  C    1.368430  12.439729  -0.064158  -5.348692  -0.051414  -2.449053
    21  H    0.007003  -0.064158   0.488522   0.071844  -0.000170   0.025658
    22  C   -2.307643  -5.348692   0.071844  15.558682   0.034803   1.993557
    23  H    0.401226  -0.051414  -0.000170   0.034803   0.514295  -0.031328
    24  C   -1.660958  -2.449053   0.025658   1.993557  -0.031328   9.246520
    25  H    0.044299   0.620905  -0.019856  -0.123875  -0.000681  -0.208849
    26  H    0.013753   0.003264   0.001515   0.375347  -0.024437  -0.124625
    27  N    0.059005  -0.023967  -0.000223  -0.107645   0.002708   0.017475
    28  H   -0.002034  -0.014817   0.001581   0.001712  -0.001353  -0.025207
    29  H   -0.013155  -0.006554  -0.000402   0.024055   0.003387  -0.024493
    30  O    0.005390  -0.003514  -0.004930  -0.001452   0.000547   0.000367
    31  O    0.000903  -0.000153  -0.000538   0.000088  -0.000010   0.000021
    32  H   -0.007790   0.003235   0.000807  -0.000938   0.000441   0.000079
    33  S    0.000140  -0.000006  -0.000018  -0.000008   0.000055   0.000003
    34  O    0.000000  -0.000000  -0.000000  -0.000000   0.000000   0.000000
    35  O   -0.000001   0.000000  -0.000000  -0.000000   0.000000  -0.000000
    36  O    0.000000   0.000000  -0.000000  -0.000000   0.000000   0.000000
    37  S   -0.319180   0.055976  -0.002420  -0.069900  -0.081636  -0.047677
    38  O   -0.033254   0.005961  -0.000130  -0.016184  -0.005706  -0.001581
    39  O    0.064488  -0.001375   0.000071   0.013383   0.000649   0.000433
    40  O   -0.037341   0.006544  -0.000128  -0.018488  -0.005944  -0.001537
              25         26         27         28         29         30
     1  C   -0.003753   0.003203  -0.000796  -0.000472   0.000912  -0.181196
     2  C   -0.001788  -0.002366  -0.000031   0.000000   0.000124   0.409229
     3  C   -0.001066   0.000353  -0.000058  -0.000062   0.000065  -0.114716
     4  C   -0.000456  -0.000268  -0.000013  -0.000010   0.000019  -0.014834
     5  C   -0.000150   0.000173  -0.000006  -0.000015   0.000036  -0.014045
     6  C    0.000233  -0.007896  -0.000118   0.000172  -0.000177   0.042497
     7  C   -0.000087  -0.000115  -0.000002   0.000008  -0.000001  -0.188896
     8  C   -0.000073   0.000010  -0.000001  -0.000004   0.000006  -0.006453
     9  H   -0.000004  -0.000053  -0.000001   0.000001  -0.000001  -0.001082
    10  C   -0.000017  -0.000025  -0.000000  -0.000000   0.000000   0.008323
    11  C    0.000019  -0.000006  -0.000000   0.000001  -0.000000   0.015858
    12  H    0.000000   0.000002   0.000000  -0.000000   0.000000   0.000270
    13  H   -0.000001   0.000000  -0.000000  -0.000000   0.000000   0.000519
    14  N    0.004392   0.004346  -0.001548   0.000308  -0.000937   0.252095
    15  N   -0.008911  -0.011802   0.002528  -0.000948   0.001796  -0.203257
    16  H   -0.000081  -0.001637  -0.000828  -0.000480   0.000404   0.003127
    17  C    0.049845   0.049022  -0.005277  -0.000364  -0.006596   0.003937
    18  C   -0.058089   0.014194   0.035182   0.015909  -0.005056  -0.017725
    19  C    0.044299   0.013753   0.059005  -0.002034  -0.013155   0.005390
    20  C    0.620905   0.003264  -0.023967  -0.014817  -0.006554  -0.003514
    21  H   -0.019856   0.001515  -0.000223   0.001581  -0.000402  -0.004930
    22  C   -0.123875   0.375347  -0.107645   0.001712   0.024055  -0.001452
    23  H   -0.000681  -0.024437   0.002708  -0.001353   0.003387   0.000547
    24  C   -0.208849  -0.124625   0.017475  -0.025207  -0.024493   0.000367
    25  H    0.499085  -0.000102  -0.008066  -0.003601   0.001708  -0.000070
    26  H   -0.000102   0.492211  -0.013999   0.003309  -0.004963  -0.000096
    27  N   -0.008066  -0.013999   6.664401   0.376809   0.380155  -0.000003
    28  H   -0.003601   0.003309   0.376809   0.412181  -0.035823   0.000005
    29  H    0.001708  -0.004963   0.380155  -0.035823   0.408623   0.000000
    30  O   -0.000070  -0.000096  -0.000003   0.000005   0.000000   8.345457
    31  O   -0.000001   0.000000  -0.000000   0.000000  -0.000000   0.014478
    32  H    0.000006   0.000004  -0.000001  -0.000001   0.000000   0.056299
    33  S   -0.000000  -0.000000  -0.000000  -0.000000   0.000000   0.001671
    34  O   -0.000000  -0.000000   0.000000   0.000000  -0.000000   0.000006
    35  O   -0.000000   0.000000  -0.000000  -0.000000   0.000000   0.000006
    36  O   -0.000000  -0.000000  -0.000000  -0.000000  -0.000000   0.000015
    37  S    0.001098   0.008416   0.000249   0.000042  -0.000286   0.006847
    38  O    0.000063   0.000330   0.000007   0.000005  -0.000034   0.000722
    39  O   -0.000010  -0.000063  -0.000000  -0.000001   0.000006  -0.000030
    40  O    0.000065   0.000121   0.000010   0.000005  -0.000028   0.000692
              31         32         33         34         35         36
     1  C    0.010853  -0.013605  -0.018727   0.000630  -0.000687   0.000642
     2  C   -0.031277   0.006207  -0.033490   0.003870  -0.006627  -0.000740
     3  C    0.186724  -0.101095  -0.238227   0.003895  -0.013452   0.003959
     4  C    0.038777  -0.010873  -1.055395   0.045390  -0.050897   0.085826
     5  C    0.020994  -0.013204   0.406824  -0.000419  -0.008282  -0.002194
     6  C    0.007383   0.016662  -0.173808  -0.005543  -0.018853  -0.002487
     7  C    0.224013   0.099801  -0.109231  -0.152821   0.105323  -0.154877
     8  C   -0.001766   0.019970  -0.211985   0.038435   0.254373   0.035980
     9  H    0.000062  -0.000171   0.036120   0.001041   0.005176   0.000174
    10  C   -0.040865  -0.028555  -1.474477   0.382780  -0.619383   0.384914
    11  C   -0.496795   0.061818   0.996988  -0.273895   0.354438  -0.348428
    12  H    0.000495   0.000861  -0.162483  -0.005612  -0.031966   0.006885
    13  H   -0.029503   0.001085  -0.118528  -0.001426   0.001682   0.016626
    14  N    0.001563  -0.014083   0.000291   0.000001   0.000003   0.000000
    15  N    0.002121   0.005896   0.000384  -0.000001  -0.000003   0.000001
    16  H    0.003753  -0.027258   0.001741   0.000028  -0.000025   0.000030
    17  C   -0.000853   0.007390  -0.000583  -0.000001   0.000002  -0.000003
    18  C   -0.000351   0.009808  -0.000078  -0.000000   0.000000   0.000000
    19  C    0.000903  -0.007790   0.000140   0.000000  -0.000001   0.000000
    20  C   -0.000153   0.003235  -0.000006  -0.000000   0.000000   0.000000
    21  H   -0.000538   0.000807  -0.000018  -0.000000  -0.000000  -0.000000
    22  C    0.000088  -0.000938  -0.000008  -0.000000  -0.000000  -0.000000
    23  H   -0.000010   0.000441   0.000055   0.000000   0.000000   0.000000
    24  C    0.000021   0.000079   0.000003   0.000000  -0.000000   0.000000
    25  H   -0.000001   0.000006  -0.000000  -0.000000  -0.000000  -0.000000
    26  H    0.000000   0.000004  -0.000000  -0.000000   0.000000  -0.000000
    27  N   -0.000000  -0.000001  -0.000000   0.000000  -0.000000  -0.000000
    28  H    0.000000  -0.000001  -0.000000   0.000000  -0.000000  -0.000000
    29  H   -0.000000   0.000000   0.000000  -0.000000   0.000000  -0.000000
    30  O    0.014478   0.056299   0.001671   0.000006   0.000006   0.000015
    31  O    8.215000   0.225455   0.000707   0.000177  -0.000018   0.000131
    32  H    0.225455   0.326031  -0.001806  -0.000311   0.000295  -0.000272
    33  S    0.000707  -0.001806  17.070796   0.171568   0.048300   0.096307
    34  O    0.000177  -0.000311   0.171568   8.617986  -0.210425  -0.233593
    35  O   -0.000018   0.000295   0.048300  -0.210425   8.842757  -0.216761
    36  O    0.000131  -0.000272   0.096307  -0.233593  -0.216761   8.730125
    37  S   -0.000064  -0.001401  -0.022641  -0.000251  -0.000895  -0.000148
    38  O   -0.000008  -0.000112  -0.000238  -0.000000  -0.000001  -0.000000
    39  O    0.000026  -0.000194  -0.000599  -0.000001  -0.000012  -0.000000
    40  O   -0.000005  -0.000127  -0.000206  -0.000000  -0.000001  -0.000000
              37         38         39         40
     1  C    1.188839  -0.050896   0.220262  -0.052610
     2  C   -0.493282  -0.026023   0.003617  -0.026182
     3  C   -0.187904  -0.016983   0.125659  -0.014770
     4  C   -1.045923  -0.009384   0.005560  -0.006402
     5  C    0.078726  -0.081558   0.417424  -0.072963
     6  C   -4.132108  -0.097773  -0.030311  -0.104980
     7  C   -0.275000  -0.004336   0.006698  -0.004971
     8  C   -0.045295  -0.030570   0.046184  -0.035336
     9  H   -0.194625  -0.001469  -0.057704  -0.000213
    10  C   -0.383363  -0.009519  -0.020132  -0.009524
    11  C   -0.102416  -0.000769   0.007371  -0.000862
    12  H    0.032697   0.000777   0.006900   0.000520
    13  H    0.000469   0.000011   0.000160   0.000007
    14  N    0.562160   0.014148  -0.097011   0.008756
    15  N   -0.387310   0.006954  -0.056920   0.013842
    16  H   -0.020668  -0.001506   0.003928  -0.001620
    17  C    0.491994   0.053918  -0.065072   0.056738
    18  C    0.053875   0.000120  -0.002334   0.002139
    19  C   -0.319180  -0.033254   0.064488  -0.037341
    20  C    0.055976   0.005961  -0.001375   0.006544
    21  H   -0.002420  -0.000130   0.000071  -0.000128
    22  C   -0.069900  -0.016184   0.013383  -0.018488
    23  H   -0.081636  -0.005706   0.000649  -0.005944
    24  C   -0.047677  -0.001581   0.000433  -0.001537
    25  H    0.001098   0.000063  -0.000010   0.000065
    26  H    0.008416   0.000330  -0.000063   0.000121
    27  N    0.000249   0.000007  -0.000000   0.000010
    28  H    0.000042   0.000005  -0.000001   0.000005
    29  H   -0.000286  -0.000034   0.000006  -0.000028
    30  O    0.006847   0.000722  -0.000030   0.000692
    31  O   -0.000064  -0.000008   0.000026  -0.000005
    32  H   -0.001401  -0.000112  -0.000194  -0.000127
    33  S   -0.022641  -0.000238  -0.000599  -0.000206
    34  O   -0.000251  -0.000000  -0.000001  -0.000000
    35  O   -0.000895  -0.000001  -0.000012  -0.000001
    36  O   -0.000148  -0.000000  -0.000000  -0.000000
    37  S   20.729822   0.516999  -1.036418   0.514142
    38  O    0.516999   8.702264  -0.297890  -0.225923
    39  O   -1.036418  -0.297890   9.385131  -0.296670
    40  O    0.514142  -0.225923  -0.296670   8.702604
 Mulliken charges:
               1
     1  C   -0.281433
     2  C   -0.100045
     3  C    0.440292
     4  C    0.626668
     5  C   -0.250272
     6  C   -0.627460
     7  C   -0.525080
     8  C   -0.307876
     9  H    0.265289
    10  C   -0.619508
    11  C   -0.437119
    12  H    0.221241
    13  H    0.242871
    14  N    0.345686
    15  N   -0.168645
    16  H    0.536007
    17  C    0.093452
    18  C   -0.109972
    19  C   -0.179493
    20  C   -0.383478
    21  H    0.191361
    22  C   -0.189934
    23  H    0.205370
    24  C   -0.271575
    25  H    0.217867
    26  H    0.222881
    27  N   -0.375946
    28  H    0.273141
    29  H    0.277210
    30  O   -0.416055
    31  O   -0.351518
    32  H    0.379647
    33  S    0.790643
    34  O   -0.381508
    35  O   -0.434066
    36  O   -0.402113
    37  S    0.608459
    38  O   -0.390436
    39  O   -0.345200
    40  O   -0.389354
 Sum of Mulliken charges =  -2.00000
 Mulliken charges with hydrogens summed into heavy atoms:
               1
     1  C   -0.281433
     2  C   -0.100045
     3  C    0.440292
     4  C    0.626668
     5  C    0.015016
     6  C   -0.627460
     7  C   -0.525080
     8  C   -0.086635
    10  C   -0.619508
    11  C   -0.194248
    14  N    0.345686
    15  N    0.367362
    17  C    0.093452
    18  C    0.081389
    19  C    0.025877
    20  C   -0.165610
    22  C    0.032947
    24  C   -0.271575
    27  N    0.174405
    30  O   -0.416055
    31  O    0.028129
    33  S    0.790643
    34  O   -0.381508
    35  O   -0.434066
    36  O   -0.402113
    37  S    0.608459
    38  O   -0.390436
    39  O   -0.345200
    40  O   -0.389354
 APT charges:
               1
     1  C   -1.827078
     2  C    1.317080
     3  C   -0.392713
     4  C    0.795571
     5  C   -0.705448
     6  C    0.281645
     7  C    0.567111
     8  C   -0.895830
     9  H    0.109144
    10  C    0.074009
    11  C   -0.166002
    12  H    0.117407
    13  H    0.106159
    14  N    1.649473
    15  N   -0.558544
    16  H    0.205474
    17  C   -0.013759
    18  C    0.212860
    19  C    0.261822
    20  C   -0.426521
    21  H    0.090911
    22  C   -0.511067
    23  H    0.125042
    24  C    1.246318
    25  H    0.042358
    26  H    0.035763
    27  N   -1.493783
    28  H    0.275433
    29  H    0.276827
    30  O   -0.922982
    31  O   -1.083071
    32  H    0.645079
    33  S    3.580113
    34  O   -1.451644
    35  O   -1.392677
    36  O   -1.441653
    37  S    3.279645
    38  O   -1.351842
    39  O   -1.308737
    40  O   -1.351892
 Sum of APT charges =  -2.00000
 APT charges with hydrogens summed into heavy atoms:
               1
     1  C   -1.827078
     2  C    1.317080
     3  C   -0.392713
     4  C    0.795571
     5  C   -0.596305
     6  C    0.281645
     7  C    0.567111
     8  C   -0.778423
    10  C    0.074009
    11  C   -0.059843
    14  N    1.649473
    15  N   -0.353069
    17  C   -0.013759
    18  C    0.303770
    19  C    0.386864
    20  C   -0.384163
    22  C   -0.475304
    24  C    1.246318
    27  N   -0.941523
    30  O   -0.922982
    31  O   -0.437992
    33  S    3.580113
    34  O   -1.451644
    35  O   -1.392677
    36  O   -1.441653
    37  S    3.279645
    38  O   -1.351842
    39  O   -1.308737
    40  O   -1.351892
 Electronic spatial extent (au):  <R**2>=          18236.4185
 Charge=             -2.0000 electrons
 Dipole moment (field-independent basis, Debye):
    X=             33.2162    Y=            -15.2351    Z=             -1.2346  Tot=             36.5643
 Quadrupole moment (field-independent basis, Debye-Ang):
   XX=           -367.5692   YY=           -259.3973   ZZ=           -208.5086
   XY=            -52.5109   XZ=            -11.0547   YZ=              1.5994
 Traceless Quadrupole moment (field-independent basis, Debye-Ang):
   XX=            -89.0775   YY=             19.0944   ZZ=             69.9831
   XY=            -52.5109   XZ=            -11.0547   YZ=              1.5994
 Octapole moment (field-independent basis, Debye-Ang**2):
  XXX=           1976.5550  YYY=           -250.5461  ZZZ=             -3.4072  XYY=             60.5176
  XXY=            -20.6937  XXZ=            -96.1307  XZZ=             18.6076  YZZ=            -14.1078
  YYZ=             -1.1859  XYZ=             14.3952
 Hexadecapole moment (field-independent basis, Debye-Ang**3):
 XXXX=         -25344.8733 YYYY=          -5128.7955 ZZZZ=           -478.1832 XXXY=          -1357.6483
 XXXZ=           -888.4920 YYYX=           -472.0131 YYYZ=              3.5520 ZZZX=              4.9405
 ZZZY=              1.3240 XXYY=          -4098.6006 XXZZ=          -4034.4629 YYZZ=           -877.6728
 XXYZ=            124.2424 YYXZ=            -44.5058 ZZXY=            -84.0719
 N-N= 3.038852064606D+03 E-N=-1.125568325486D+04  KE= 2.173761883124D+03
  Exact polarizability:     905.011     -12.219     415.541       1.661      -0.450     230.064
 Approx polarizability:     599.702     -14.867     378.465       1.118      -0.430     224.477
 PrsmSu:  requested number of processors reduced to:  25 ShMem   1 Linda.
 PrsmSu:  requested number of processors reduced to:  27 ShMem   1 Linda.
 D2PCM: PCM CHGder 2nd derivatives, FixD1E=F FixD2E=F DoIter=F DoCFld=F I1PDM=0
 CoulSu:  requested number of processors reduced to:  22 ShMem   1 Linda.
 CoulSu:  requested number of processors reduced to:  23 ShMem   1 Linda.
 CoulSu:  requested number of processors reduced to:  19 ShMem   1 Linda.
 CoulSu:  requested number of processors reduced to:  20 ShMem   1 Linda.
 CoulSu:  requested number of processors reduced to:  26 ShMem   1 Linda.
 CoulSu:  requested number of processors reduced to:  25 ShMem   1 Linda.
 CoulSu:  requested number of processors reduced to:  25 ShMem   1 Linda.
 CoulSu:  requested number of processors reduced to:  26 ShMem   1 Linda.
 CoulSu:  requested number of processors reduced to:  26 ShMem   1 Linda.
 CoulSu:  requested number of processors reduced to:  26 ShMem   1 Linda.
 CoulSu:  requested number of processors reduced to:  26 ShMem   1 Linda.
 CoulSu:  requested number of processors reduced to:  25 ShMem   1 Linda.
 CoulSu:  requested number of processors reduced to:  26 ShMem   1 Linda.
 CoulSu:  requested number of processors reduced to:  26 ShMem   1 Linda.
 CoulSu:  requested number of processors reduced to:  25 ShMem   1 Linda.
 CoulSu:  requested number of processors reduced to:  26 ShMem   1 Linda.
 CoulSu:  requested number of processors reduced to:  26 ShMem   1 Linda.
 CoulSu:  requested number of processors reduced to:  29 ShMem   1 Linda.
 CoulSu:  requested number of processors reduced to:  34 ShMem   1 Linda.
 Calling FoFJK, ICntrl=    100127 FMM=F ISym2X=0 I1Cent= 0 IOpClX= 0 NMat=1 NMatS=1 NMatT=0.
 CoulSu:  requested number of processors reduced to:  26 ShMem   1 Linda.
 CoulSu:  requested number of processors reduced to:  26 ShMem   1 Linda.
 CalDSu:  requested number of processors reduced to:  29 ShMem   1 Linda.
 Full mass-weighted force constant matrix:
 Low frequencies ---   -8.7341   -3.2822   -0.0025   -0.0023   -0.0013    1.6627
 Low frequencies ---   17.9693   28.7713   35.4181
 Diagonal vibrational polarizability:
      439.6506573     150.5662605     321.1634989
 Harmonic frequencies (cm**-1), IR intensities (KM/Mole), Raman scattering
 activities (A**4/AMU), depolarization ratios for plane and unpolarized
 incident light, reduced masses (AMU), force constants (mDyne/A),
 and normal coordinates:
                      1                      2                      3
                      A                      A                      A
 Frequencies --     17.8950                27.6287                34.8092
 Red. masses --      9.4329                13.0380                 4.3286
 Frc consts  --      0.0018                 0.0059                 0.0031
 IR Inten    --      1.1419                 1.2441                 0.6564
  Atom  AN      X      Y      Z        X      Y      Z        X      Y      Z
     1   6     0.00   0.00  -0.12     0.00   0.00  -0.06     0.00   0.00   0.02
     2   6     0.00  -0.00  -0.18     0.00   0.00  -0.06     0.00  -0.00   0.01
     3   6     0.00  -0.00  -0.14     0.00   0.00  -0.02     0.00  -0.00  -0.00
     4   6    -0.00  -0.00  -0.05     0.00   0.00   0.02    -0.00   0.00   0.02
     5   6    -0.00   0.00  -0.03    -0.00   0.00  -0.00    -0.00   0.00   0.05
     6   6    -0.00   0.00  -0.06     0.00   0.00  -0.04    -0.00   0.00   0.04
     7   6     0.00  -0.00  -0.17    -0.00   0.00   0.00     0.00  -0.00  -0.04
     8   6    -0.00   0.00   0.01    -0.00   0.00   0.07     0.00   0.00   0.01
     9   1    -0.00   0.00   0.01    -0.00   0.00   0.01    -0.00   0.00   0.07
    10   6    -0.00  -0.00  -0.00    -0.00   0.00   0.08     0.00  -0.00  -0.02
    11   6    -0.00  -0.00  -0.10    -0.00   0.00   0.05     0.00  -0.00  -0.05
    12   1    -0.00   0.00   0.08    -0.00   0.00   0.10     0.00   0.00   0.03
    13   1    -0.00   0.00  -0.12     0.00  -0.00   0.08     0.00   0.00  -0.08
    14   7     0.00   0.00  -0.08     0.00   0.00  -0.06    -0.00  -0.00   0.01
    15   7     0.00   0.00  -0.11     0.00   0.00  -0.06     0.00   0.00   0.02
    16   1     0.00   0.00  -0.18    -0.00   0.00  -0.07     0.00   0.00   0.04
    17   6     0.00   0.00  -0.02     0.00   0.00  -0.01    -0.00  -0.00   0.01
    18   6     0.00   0.00   0.04    -0.00  -0.00   0.09     0.00  -0.00   0.23
    19   6     0.00   0.00   0.02     0.00   0.00  -0.06    -0.00   0.00  -0.21
    20   6     0.00  -0.00   0.14     0.00  -0.00   0.14     0.00  -0.00   0.22
    21   1    -0.00   0.00   0.02    -0.00   0.00   0.13     0.00  -0.00   0.42
    22   6     0.00  -0.00   0.12     0.00  -0.00   0.00    -0.00  -0.00  -0.23
    23   1     0.00   0.00  -0.03     0.00   0.00  -0.13    -0.00   0.00  -0.38
    24   6     0.00  -0.00   0.18     0.00  -0.00   0.10    -0.00  -0.00  -0.02
    25   1     0.00  -0.00   0.19    -0.00  -0.00   0.22     0.00  -0.00   0.39
    26   1     0.00  -0.00   0.15     0.00  -0.00  -0.03    -0.00   0.00  -0.41
    27   7    -0.00  -0.00   0.28    -0.00  -0.00   0.17     0.00   0.01  -0.04
    28   1     0.02  -0.01   0.32     0.01  -0.02   0.24    -0.01  -0.05   0.11
    29   1     0.02  -0.01   0.31     0.01  -0.02   0.14    -0.01  -0.05  -0.21
    30   8     0.00  -0.00  -0.26     0.00   0.00  -0.09     0.00  -0.00   0.01
    31   8     0.00  -0.00  -0.26     0.00   0.00  -0.03     0.00  -0.00  -0.06
    32   1     0.00  -0.00  -0.28     0.00   0.00  -0.06     0.00  -0.00  -0.04
    33  16    -0.00   0.00   0.14    -0.00  -0.00   0.05     0.00   0.00  -0.02
    34   8     0.12   0.11   0.22    -0.07  -0.43  -0.14     0.01   0.03  -0.01
    35   8    -0.02  -0.01   0.05     0.01   0.06   0.51    -0.00  -0.00  -0.05
    36   8    -0.10  -0.09   0.25     0.06   0.37  -0.24    -0.00  -0.02   0.00
    37  16    -0.00   0.00  -0.03     0.00   0.00  -0.08    -0.00   0.00   0.03
    38   8    -0.01  -0.02  -0.02     0.03   0.02  -0.10     0.11  -0.04  -0.04
    39   8    -0.00   0.00  -0.02     0.00   0.00  -0.07    -0.00   0.00   0.15
    40   8     0.01   0.02  -0.02    -0.03  -0.01  -0.10    -0.11   0.04  -0.05
                      4                      5                      6
                      A                      A                      A
 Frequencies --     48.1998                54.0589                57.2433
 Red. masses --      7.4849                 8.3073                 8.5783
 Frc consts  --      0.0102                 0.0143                 0.0166
 IR Inten    --      1.5163                 2.7451                 7.0578
  Atom  AN      X      Y      Z        X      Y      Z        X      Y      Z
     1   6    -0.01  -0.11   0.01    -0.00  -0.01  -0.06     0.00  -0.00  -0.14
     2   6    -0.03  -0.10   0.00    -0.00  -0.01  -0.00    -0.00  -0.00  -0.08
     3   6    -0.03  -0.06  -0.00    -0.00  -0.00   0.08    -0.00  -0.00  -0.07
     4   6    -0.00  -0.05   0.00    -0.00  -0.00   0.08     0.00  -0.00  -0.20
     5   6     0.02  -0.06   0.00     0.00  -0.00   0.08     0.00  -0.00  -0.25
     6   6     0.02  -0.09   0.00     0.00  -0.01   0.02     0.00  -0.00  -0.18
     7   6    -0.07  -0.04  -0.01    -0.01  -0.00   0.13    -0.00  -0.00   0.11
     8   6     0.00  -0.01   0.00    -0.00  -0.00   0.08     0.00  -0.00  -0.19
     9   1     0.04  -0.05   0.00     0.00  -0.00   0.13     0.00  -0.00  -0.28
    10   6    -0.03   0.02  -0.00    -0.00   0.00   0.07    -0.00  -0.00  -0.02
    11   6    -0.07   0.00  -0.01    -0.01   0.00   0.12    -0.00   0.00   0.14
    12   1     0.03   0.01   0.01     0.00   0.00   0.05     0.00  -0.00  -0.29
    13   1    -0.09   0.02  -0.02    -0.01   0.00   0.13    -0.00  -0.00   0.30
    14   7    -0.02  -0.12   0.01    -0.00  -0.01  -0.15    -0.00  -0.01  -0.14
    15   7     0.01  -0.10   0.02     0.00  -0.01  -0.20     0.00  -0.00  -0.09
    16   1     0.05  -0.12   0.01     0.00  -0.01  -0.18     0.00  -0.00  -0.04
    17   6     0.02  -0.02   0.01     0.00  -0.00  -0.17     0.00  -0.00  -0.06
    18   6     0.12   0.03   0.01     0.01   0.00  -0.20     0.01   0.00   0.05
    19   6    -0.07   0.04   0.01    -0.00   0.00  -0.05    -0.00   0.00  -0.13
    20   6     0.13   0.14   0.01     0.01   0.01  -0.08     0.01   0.00   0.09
    21   1     0.19  -0.02   0.02     0.01  -0.00  -0.31     0.01  -0.00   0.11
    22   6    -0.06   0.15  -0.00    -0.00   0.01   0.08    -0.00   0.01  -0.10
    23   1    -0.14   0.00   0.01    -0.01  -0.00  -0.04    -0.01  -0.00  -0.20
    24   6     0.04   0.21  -0.00     0.01   0.01   0.09     0.00   0.01   0.01
    25   1     0.21   0.18   0.00     0.02   0.01  -0.09     0.01   0.01   0.18
    26   1    -0.14   0.20  -0.01    -0.01   0.01   0.19    -0.01   0.01  -0.16
    27   7     0.05   0.33  -0.02     0.00   0.02   0.27     0.00   0.02   0.05
    28   1     0.12   0.36  -0.03     0.05   0.04   0.27     0.01  -0.01   0.13
    29   1    -0.03   0.37  -0.03     0.04   0.04   0.39     0.01  -0.01  -0.01
    30   8    -0.05  -0.10   0.00    -0.00  -0.01  -0.04    -0.00  -0.00  -0.01
    31   8    -0.10  -0.05  -0.02    -0.01  -0.00   0.17    -0.01  -0.00   0.28
    32   1    -0.10  -0.08  -0.01    -0.01  -0.01   0.11    -0.00  -0.00   0.20
    33  16    -0.03   0.10   0.00    -0.00   0.01  -0.04    -0.00   0.00   0.01
    34   8    -0.05   0.12   0.00    -0.10   0.07  -0.05     0.02  -0.01   0.02
    35   8     0.04   0.11   0.01     0.01  -0.00  -0.12    -0.00   0.01   0.03
    36   8    -0.07   0.12   0.00     0.07  -0.04  -0.04    -0.03   0.02   0.01
    37  16     0.05  -0.12  -0.00     0.00  -0.01   0.00     0.00  -0.00   0.07
    38   8     0.04  -0.12   0.00     0.19  -0.10  -0.12    -0.16  -0.17   0.18
    39   8     0.07  -0.09  -0.02     0.00  -0.01   0.24     0.00  -0.00   0.08
    40   8     0.05  -0.14  -0.00    -0.19   0.08  -0.12     0.16   0.17   0.18
                      7                      8                      9
                      A                      A                      A
 Frequencies --     77.1860                93.9234               103.3241
 Red. masses --      9.1117                14.6416                 8.0775
 Frc consts  --      0.0320                 0.0761                 0.0508
 IR Inten    --      1.5181                13.3823                 0.4343
  Atom  AN      X      Y      Z        X      Y      Z        X      Y      Z
     1   6    -0.00   0.00   0.02    -0.04   0.06  -0.00    -0.00  -0.00   0.07
     2   6    -0.00   0.00   0.05    -0.06   0.09  -0.00    -0.00   0.00   0.20
     3   6     0.00  -0.00  -0.10    -0.06   0.13  -0.00    -0.00   0.00   0.07
     4   6     0.00  -0.00  -0.20    -0.05   0.14  -0.00    -0.00   0.00   0.03
     5   6     0.00  -0.00  -0.18    -0.00   0.13  -0.00    -0.00   0.00   0.05
     6   6    -0.00  -0.00  -0.06     0.00   0.07  -0.00    -0.00   0.00   0.04
     7   6     0.00  -0.00  -0.07    -0.04   0.12  -0.00    -0.00  -0.00  -0.07
     8   6     0.00  -0.00  -0.24    -0.07   0.12  -0.00     0.00   0.00  -0.05
     9   1     0.00  -0.00  -0.23     0.04   0.15  -0.00    -0.00   0.00   0.04
    10   6     0.00  -0.00  -0.15    -0.05   0.10  -0.00     0.00  -0.00  -0.13
    11   6     0.00  -0.00  -0.10    -0.03   0.11  -0.00     0.00  -0.00  -0.19
    12   1     0.00  -0.00  -0.28    -0.08   0.12   0.00    -0.00   0.00  -0.02
    13   1     0.00  -0.00  -0.03    -0.03   0.11  -0.00     0.00  -0.00  -0.27
    14   7    -0.00  -0.00   0.04    -0.05   0.03  -0.00    -0.00  -0.00  -0.07
    15   7    -0.00   0.00   0.14    -0.06   0.02   0.00    -0.00  -0.00  -0.08
    16   1    -0.00   0.00   0.21    -0.07   0.03  -0.00    -0.00  -0.00   0.08
    17   6    -0.00  -0.00   0.11    -0.06   0.02   0.00    -0.00  -0.00  -0.19
    18   6    -0.00  -0.00  -0.02    -0.06   0.03   0.00    -0.00   0.00  -0.16
    19   6    -0.00  -0.00   0.19    -0.07   0.03   0.00    -0.00   0.00  -0.22
    20   6    -0.00   0.00  -0.08    -0.05   0.04   0.00    -0.00   0.00  -0.06
    21   1    -0.00   0.00  -0.10    -0.05   0.02   0.00     0.00  -0.00  -0.18
    22   6    -0.00  -0.00   0.14    -0.08   0.05   0.00    -0.00   0.00  -0.13
    23   1    -0.00  -0.00   0.28    -0.07   0.03   0.00    -0.00  -0.00  -0.26
    24   6    -0.00   0.00  -0.00    -0.07   0.05   0.00    -0.00   0.00   0.02
    25   1    -0.00   0.00  -0.20    -0.04   0.05   0.00     0.00   0.00   0.00
    26   1    -0.00  -0.00   0.21    -0.08   0.05   0.00    -0.00   0.00  -0.12
    27   7    -0.00  -0.00  -0.07    -0.06   0.07  -0.00    -0.01   0.00   0.26
    28   1    -0.01   0.03  -0.18    -0.05   0.07   0.00     0.05  -0.01   0.37
    29   1    -0.01   0.03  -0.02    -0.08   0.08  -0.00     0.05  -0.01   0.32
    30   8    -0.00   0.00   0.19    -0.09   0.08  -0.00    -0.00   0.00   0.40
    31   8     0.00   0.00   0.02    -0.04   0.13  -0.00    -0.00  -0.00  -0.09
    32   1    -0.00   0.00   0.09    -0.04   0.13  -0.00    -0.00   0.00   0.10
    33  16     0.00   0.00   0.03    -0.07  -0.14   0.00     0.00  -0.00  -0.01
    34   8     0.17  -0.06   0.06     0.02  -0.22  -0.00     0.14  -0.03   0.02
    35   8    -0.02   0.01   0.13    -0.31  -0.19  -0.00    -0.01   0.00   0.06
    36   8    -0.14   0.05   0.05     0.07  -0.23   0.01    -0.11   0.03   0.02
    37  16    -0.00   0.00  -0.02     0.22  -0.06   0.00     0.00  -0.00   0.01
    38   8     0.19  -0.13  -0.14     0.22  -0.20   0.00    -0.06   0.04   0.05
    39   8    -0.00   0.00   0.25     0.39   0.10   0.00     0.00   0.00  -0.08
    40   8    -0.19   0.13  -0.14     0.22  -0.19  -0.00     0.06  -0.04   0.05
                     10                     11                     12
                      A                      A                      A
 Frequencies --    132.7045               142.5511               153.3913
 Red. masses --     11.3662                 8.4426                 7.8279
 Frc consts  --      0.1179                 0.1011                 0.1085
 IR Inten    --      0.4732                 2.0601                 6.4140
  Atom  AN      X      Y      Z        X      Y      Z        X      Y      Z
     1   6     0.01  -0.00  -0.18    -0.07   0.05  -0.01     0.03  -0.02   0.01
     2   6     0.00   0.00   0.07     0.01   0.01   0.00    -0.00  -0.01   0.00
     3   6    -0.00   0.00   0.03     0.01  -0.05   0.00    -0.04   0.00  -0.01
     4   6     0.00   0.00   0.09    -0.03  -0.07   0.00    -0.05   0.00  -0.01
     5   6     0.00  -0.00  -0.06    -0.10  -0.01  -0.00    -0.02  -0.02  -0.01
     6   6     0.01  -0.00  -0.26    -0.10   0.01  -0.01    -0.01  -0.03   0.01
     7   6    -0.00   0.00  -0.06     0.05  -0.08  -0.00    -0.07   0.03  -0.00
     8   6    -0.00   0.01   0.24    -0.03  -0.12   0.01    -0.06   0.02  -0.01
     9   1     0.01   0.00   0.02    -0.14  -0.03  -0.00     0.01  -0.01  -0.01
    10   6    -0.00   0.01   0.20     0.00  -0.14   0.01    -0.10   0.04   0.00
    11   6    -0.00   0.01   0.04     0.03  -0.13   0.01    -0.08   0.05   0.00
    12   1     0.00   0.01   0.29    -0.06  -0.14   0.00    -0.03   0.04  -0.01
    13   1    -0.00   0.01  -0.07     0.06  -0.15   0.01    -0.07   0.04   0.01
    14   7     0.00  -0.01  -0.24    -0.06   0.17  -0.01     0.04   0.03   0.02
    15   7     0.00  -0.01   0.04    -0.02   0.21   0.00     0.14   0.08   0.01
    16   1     0.00  -0.01   0.26     0.02   0.19   0.01     0.22   0.04   0.00
    17   6     0.01  -0.01   0.06    -0.03   0.22   0.00     0.17   0.11  -0.00
    18   6     0.01  -0.01   0.05    -0.13   0.17   0.00     0.14   0.09  -0.01
    19   6     0.00  -0.01   0.10     0.05   0.17   0.00     0.25   0.07  -0.01
    20   6     0.01  -0.00   0.03    -0.15   0.06  -0.00     0.14   0.01  -0.01
    21   1     0.01  -0.01   0.04    -0.21   0.23   0.00     0.11   0.12  -0.01
    22   6     0.00  -0.00   0.08     0.04   0.05  -0.00     0.26  -0.01  -0.01
    23   1     0.00  -0.01   0.13     0.12   0.20   0.00     0.32   0.10  -0.01
    24   6     0.01  -0.00   0.01    -0.06  -0.00  -0.00     0.21  -0.04  -0.00
    25   1     0.01  -0.00   0.00    -0.22   0.02  -0.00     0.07  -0.02  -0.01
    26   1     0.00  -0.00   0.10     0.12   0.00  -0.00     0.30  -0.04  -0.01
    27   7     0.01   0.00  -0.09    -0.07  -0.14  -0.00     0.21  -0.15   0.01
    28   1    -0.01   0.01  -0.14    -0.16  -0.19   0.01     0.14  -0.18   0.02
    29   1    -0.02   0.01  -0.11     0.02  -0.20   0.00     0.28  -0.19   0.01
    30   8    -0.00   0.00   0.34     0.08   0.03   0.01    -0.01  -0.00   0.00
    31   8    -0.00   0.00  -0.32     0.11  -0.06  -0.02    -0.10   0.02  -0.00
    32   1    -0.00  -0.00  -0.13     0.11  -0.01  -0.01    -0.10  -0.02  -0.00
    33  16    -0.01  -0.00   0.04     0.02   0.02   0.00    -0.15   0.00   0.00
    34   8    -0.21   0.03  -0.02    -0.07   0.09  -0.00    -0.14  -0.01  -0.00
    35   8     0.01  -0.01  -0.04     0.21   0.06  -0.00    -0.20  -0.01   0.00
    36   8     0.18  -0.04  -0.01    -0.09   0.09  -0.00    -0.13  -0.01   0.01
    37  16    -0.00   0.00  -0.07     0.03  -0.09  -0.00    -0.02  -0.03   0.00
    38   8    -0.10  -0.23  -0.01     0.02  -0.21   0.00    -0.02  -0.03   0.00
    39   8    -0.01  -0.00   0.04     0.15   0.02   0.00    -0.02  -0.03   0.00
    40   8     0.10   0.26  -0.01     0.02  -0.19  -0.00    -0.03  -0.04  -0.00
                     13                     14                     15
                      A                      A                      A
 Frequencies --    166.4087               206.6356               211.6543
 Red. masses --      6.7090                12.0782                 7.0191
 Frc consts  --      0.1095                 0.3039                 0.1853
 IR Inten    --      1.8188                 6.4750                 2.5065
  Atom  AN      X      Y      Z        X      Y      Z        X      Y      Z
     1   6     0.00   0.00   0.15    -0.03  -0.05   0.01     0.00   0.00   0.02
     2   6     0.00  -0.00  -0.00    -0.02  -0.05  -0.01     0.00   0.00  -0.03
     3   6     0.00  -0.00  -0.11    -0.01   0.02   0.01    -0.00  -0.00   0.06
     4   6     0.01  -0.00  -0.17     0.03   0.04   0.02    -0.00  -0.01   0.14
     5   6     0.00  -0.00  -0.20     0.00   0.00  -0.00     0.00  -0.00   0.02
     6   6     0.00   0.00   0.03    -0.03  -0.07  -0.02     0.01   0.01  -0.11
     7   6     0.00  -0.00  -0.03    -0.05   0.07   0.00     0.00  -0.01   0.00
     8   6     0.00  -0.00  -0.10     0.07   0.16   0.04    -0.01  -0.02   0.20
     9   1     0.00  -0.00  -0.33     0.04   0.01  -0.01    -0.00  -0.00  -0.01
    10   6     0.00  -0.00   0.15     0.07   0.20  -0.00    -0.01  -0.02  -0.04
    11   6     0.00  -0.00   0.21    -0.02   0.17  -0.03     0.00  -0.02  -0.18
    12   1     0.00  -0.00  -0.19     0.13   0.19   0.06    -0.01  -0.02   0.31
    13   1     0.00  -0.00   0.35    -0.10   0.22  -0.07     0.01  -0.03  -0.34
    14   7     0.00  -0.00   0.22    -0.04   0.04   0.03     0.00  -0.01   0.14
    15   7    -0.00  -0.01   0.17     0.01   0.08   0.06     0.00  -0.01   0.29
    16   1    -0.01  -0.00   0.12     0.05   0.05   0.05    -0.00  -0.01   0.24
    17   6    -0.01  -0.01  -0.01     0.00   0.13   0.02     0.00  -0.01   0.11
    18   6    -0.00  -0.01  -0.10    -0.05   0.11  -0.01     0.00  -0.01  -0.04
    19   6    -0.01  -0.01  -0.11     0.04   0.11  -0.01    -0.00  -0.01  -0.04
    20   6    -0.00  -0.00  -0.13    -0.06   0.05  -0.04     0.00  -0.00  -0.17
    21   1    -0.00  -0.01  -0.11    -0.10   0.14  -0.01     0.01  -0.01  -0.05
    22   6    -0.01   0.00  -0.14     0.04   0.04  -0.03    -0.01  -0.00  -0.16
    23   1    -0.02  -0.01  -0.12     0.08   0.12  -0.01    -0.01  -0.01  -0.04
    24   6    -0.01   0.00  -0.04    -0.02   0.01  -0.02     0.00  -0.00  -0.08
    25   1    -0.00   0.00  -0.15    -0.10   0.03  -0.05     0.01  -0.00  -0.24
    26   1    -0.02   0.00  -0.17     0.08   0.02  -0.05    -0.01   0.00  -0.22
    27   7    -0.02   0.01   0.18    -0.03  -0.09   0.03    -0.01   0.01   0.17
    28   1     0.05   0.00   0.27    -0.09  -0.13   0.07     0.07   0.01   0.26
    29   1     0.04   0.01   0.27     0.06  -0.14   0.05     0.06   0.01   0.28
    30   8     0.00  -0.00   0.01    -0.04  -0.06  -0.03     0.00   0.00  -0.16
    31   8     0.01  -0.00  -0.18    -0.14   0.03   0.02     0.01  -0.01   0.13
    32   1     0.01  -0.00  -0.18    -0.14  -0.04   0.01     0.01   0.00   0.06
    33  16     0.00   0.00   0.05     0.17   0.06  -0.00    -0.02  -0.01  -0.02
    34   8    -0.18   0.03  -0.00     0.33  -0.02   0.02     0.03  -0.01  -0.01
    35   8     0.02  -0.00  -0.01    -0.12   0.01   0.00     0.01  -0.00  -0.01
    36   8     0.16  -0.03   0.00     0.38  -0.03  -0.02    -0.10   0.01  -0.00
    37  16     0.00   0.00   0.02    -0.11  -0.15  -0.01     0.02   0.02  -0.07
    38   8     0.03   0.04  -0.00    -0.15  -0.20   0.01    -0.05  -0.16  -0.03
    39   8    -0.00   0.00   0.02    -0.15  -0.18  -0.00     0.02   0.02  -0.02
    40   8    -0.03  -0.03  -0.00    -0.12  -0.12  -0.02     0.09   0.21  -0.03
                     16                     17                     18
                      A                      A                      A
 Frequencies --    237.3127               249.6823               269.8824
 Red. masses --      9.1276                 7.8560                11.4697
 Frc consts  --      0.3029                 0.2886                 0.4922
 IR Inten    --     10.4186                 0.2321                65.5137
  Atom  AN      X      Y      Z        X      Y      Z        X      Y      Z
     1   6    -0.03  -0.09  -0.00    -0.00  -0.00   0.13    -0.10   0.01  -0.04
     2   6    -0.01  -0.15  -0.00    -0.01  -0.00   0.14    -0.16  -0.02  -0.02
     3   6    -0.01  -0.15  -0.01    -0.01   0.00   0.32    -0.15  -0.05  -0.03
     4   6     0.07  -0.11  -0.00    -0.00   0.00   0.13    -0.09  -0.03  -0.00
     5   6     0.07  -0.08  -0.00    -0.00  -0.00  -0.00    -0.10   0.02   0.03
     6   6     0.08  -0.05   0.00    -0.00  -0.00  -0.00    -0.10   0.08  -0.01
     7   6    -0.10  -0.11  -0.00    -0.01  -0.00   0.19    -0.15  -0.08  -0.00
     8   6     0.06  -0.04   0.00    -0.00   0.00  -0.15    -0.07  -0.03  -0.00
     9   1     0.03  -0.10   0.00     0.00  -0.00  -0.15    -0.17  -0.01   0.07
    10   6    -0.01   0.02  -0.00    -0.00   0.00  -0.01    -0.02  -0.05   0.01
    11   6    -0.08  -0.02  -0.01    -0.01   0.00   0.32    -0.13  -0.07   0.03
    12   1     0.13  -0.01   0.01     0.00  -0.00  -0.44    -0.11  -0.06  -0.01
    13   1    -0.14   0.03  -0.01    -0.01   0.00   0.38    -0.18  -0.03   0.05
    14   7    -0.05   0.02  -0.01    -0.00  -0.00   0.06    -0.11  -0.05  -0.04
    15   7     0.00   0.06  -0.01    -0.00  -0.00  -0.05    -0.03  -0.04   0.04
    16   1     0.07   0.02  -0.01     0.00  -0.00  -0.12     0.04  -0.06   0.07
    17   6    -0.02   0.15  -0.00     0.00   0.00  -0.03     0.03  -0.01   0.02
    18   6    -0.10   0.13   0.00     0.00   0.00  -0.00     0.09   0.01   0.00
    19   6    -0.00   0.14   0.00     0.00   0.00  -0.00     0.07  -0.04   0.01
    20   6    -0.12   0.07   0.00     0.00   0.00   0.02     0.10   0.01  -0.02
    21   1    -0.16   0.18   0.00     0.00   0.00   0.00     0.12  -0.02   0.00
    22   6    -0.00   0.07   0.01     0.00   0.00   0.03     0.09  -0.03  -0.02
    23   1     0.03   0.16   0.00     0.01   0.00  -0.01     0.10  -0.02   0.01
    24   6    -0.08   0.03   0.00     0.00   0.00   0.01     0.13  -0.01  -0.01
    25   1    -0.16   0.05   0.00     0.00   0.00   0.04     0.08  -0.01  -0.03
    26   1     0.05   0.04   0.01     0.01   0.00   0.04     0.07  -0.02  -0.03
    27   7    -0.09  -0.11  -0.00     0.00  -0.00  -0.02     0.14  -0.02   0.02
    28   1    -0.20  -0.17   0.00    -0.01  -0.00  -0.04     0.13  -0.02  -0.00
    29   1     0.00  -0.18  -0.04    -0.00  -0.00  -0.04     0.14  -0.03  -0.00
    30   8    -0.01  -0.15   0.01    -0.01  -0.00  -0.12    -0.20  -0.02   0.01
    31   8    -0.23  -0.18   0.01    -0.01  -0.01  -0.27    -0.25  -0.13  -0.00
    32   1    -0.23  -0.30   0.01    -0.01  -0.01  -0.29    -0.26  -0.20   0.00
    33  16    -0.01   0.01   0.00     0.00  -0.00  -0.06     0.13  -0.03  -0.00
    34   8     0.02  -0.01   0.00     0.21  -0.04  -0.01     0.16  -0.03   0.01
    35   8    -0.08  -0.01   0.00    -0.02  -0.00  -0.05     0.25  -0.01  -0.01
    36   8     0.05  -0.02  -0.00    -0.17   0.04  -0.02     0.14  -0.03  -0.01
    37  16     0.14   0.06   0.00     0.00   0.00  -0.05    -0.03   0.14   0.01
    38   8     0.19   0.24  -0.03    -0.04  -0.12  -0.02    -0.05   0.01   0.02
    39   8    -0.03  -0.09   0.00     0.00   0.00  -0.03     0.23   0.38   0.00
    40   8     0.18   0.23   0.03     0.05   0.14  -0.02    -0.06  -0.03  -0.01
                     19                     20                     21
                      A                      A                      A
 Frequencies --    271.1883               299.8152               334.3381
 Red. masses --      5.4946                12.4585                 1.3039
 Frc consts  --      0.2381                 0.6598                 0.0859
 IR Inten    --     13.8854                 0.2109                22.5915
  Atom  AN      X      Y      Z        X      Y      Z        X      Y      Z
     1   6    -0.01   0.00   0.24    -0.08  -0.03   0.00     0.00  -0.01  -0.00
     2   6    -0.01  -0.00   0.11    -0.17   0.07  -0.00    -0.00  -0.00   0.03
     3   6    -0.01  -0.00   0.08    -0.14   0.16  -0.01     0.00   0.00   0.08
     4   6    -0.01  -0.00  -0.01    -0.12   0.17  -0.00     0.00   0.00   0.01
     5   6    -0.01  -0.00  -0.19    -0.02   0.11  -0.01     0.00  -0.00  -0.03
     6   6    -0.01   0.01   0.03    -0.01  -0.02  -0.00     0.00  -0.00  -0.01
     7   6    -0.01  -0.01  -0.03    -0.05   0.12  -0.01     0.00   0.00   0.02
     8   6    -0.00  -0.00   0.06    -0.12   0.09   0.01     0.00   0.00  -0.04
     9   1    -0.01  -0.00  -0.45     0.10   0.16  -0.01     0.01   0.00  -0.05
    10   6    -0.00  -0.01  -0.00    -0.02  -0.01   0.01     0.00   0.00  -0.02
    11   6    -0.01  -0.01  -0.21    -0.04   0.03  -0.01     0.00   0.00  -0.04
    12   1    -0.01  -0.01   0.12    -0.23   0.03   0.01     0.00   0.00  -0.07
    13   1    -0.01  -0.00  -0.37    -0.01   0.01  -0.01     0.00  -0.00  -0.09
    14   7    -0.01  -0.00   0.23    -0.08  -0.06   0.01     0.00  -0.02  -0.05
    15   7    -0.00  -0.00  -0.20    -0.02  -0.03  -0.00    -0.00  -0.02   0.01
    16   1     0.00  -0.01  -0.39     0.05  -0.06  -0.01     0.00  -0.02   0.05
    17   6     0.00  -0.00  -0.14     0.01   0.04  -0.00    -0.00  -0.01   0.02
    18   6     0.01  -0.00  -0.03     0.03   0.05  -0.00     0.00   0.00   0.00
    19   6     0.01  -0.00  -0.04     0.04   0.03  -0.00    -0.01   0.00   0.02
    20   6     0.01  -0.00   0.11     0.03   0.04   0.00     0.00   0.02  -0.03
    21   1     0.01  -0.00  -0.03     0.04   0.04  -0.00     0.01  -0.00  -0.02
    22   6     0.01  -0.00   0.11     0.05   0.02   0.00    -0.01   0.02   0.00
    23   1     0.01  -0.00  -0.06     0.07   0.04   0.00    -0.02  -0.00   0.06
    24   6     0.01  -0.00   0.07     0.06   0.02   0.00    -0.00   0.02  -0.01
    25   1     0.01  -0.00   0.17     0.01   0.03  -0.00     0.01   0.02  -0.09
    26   1     0.01  -0.00   0.16     0.05   0.02   0.01    -0.01   0.02   0.04
    27   7     0.02  -0.00  -0.09     0.06  -0.06  -0.00    -0.00   0.01   0.01
    28   1    -0.03   0.01  -0.18    -0.01  -0.11   0.03    -0.07  -0.25   0.65
    29   1    -0.04   0.00  -0.17     0.11  -0.12  -0.05     0.03  -0.26  -0.62
    30   8    -0.01  -0.00  -0.04    -0.24   0.04   0.00    -0.00  -0.00  -0.03
    31   8    -0.02  -0.01   0.05     0.01   0.18   0.00     0.01   0.01  -0.01
    32   1    -0.02  -0.02   0.03     0.02   0.25   0.00     0.01   0.01  -0.02
    33  16     0.01  -0.00   0.03     0.07  -0.11   0.00    -0.00   0.00   0.01
    34   8    -0.09   0.02   0.01    -0.04  -0.09  -0.03    -0.04   0.01   0.00
    35   8     0.03   0.00   0.03     0.46  -0.04  -0.01     0.00   0.00   0.02
    36   8     0.10  -0.02   0.01    -0.09  -0.07   0.04     0.02  -0.01   0.01
    37  16    -0.00   0.01  -0.03     0.06  -0.09   0.00    -0.00   0.00   0.01
    38   8    -0.03  -0.10  -0.02     0.13   0.09  -0.04    -0.00   0.02   0.01
    39   8     0.02   0.03  -0.02    -0.20  -0.34   0.00     0.01   0.01   0.01
    40   8     0.02   0.10  -0.02     0.13   0.08   0.04    -0.01  -0.02   0.00
                     22                     23                     24
                      A                      A                      A
 Frequencies --    335.1515               341.3681               343.4704
 Red. masses --      3.0749                 6.5972                 9.4958
 Frc consts  --      0.2035                 0.4530                 0.6600
 IR Inten    --     10.4422                 0.6347                 0.5426
  Atom  AN      X      Y      Z        X      Y      Z        X      Y      Z
     1   6    -0.01   0.00  -0.01     0.01  -0.00   0.04    -0.13   0.00   0.01
     2   6    -0.00   0.00   0.09     0.01  -0.00   0.00    -0.15   0.05  -0.01
     3   6    -0.01   0.00   0.22     0.01   0.00  -0.08    -0.13  -0.01  -0.02
     4   6    -0.00  -0.00   0.02     0.01   0.00  -0.01    -0.12  -0.02  -0.00
     5   6    -0.01   0.00  -0.06     0.01   0.00   0.39    -0.12  -0.00   0.06
     6   6    -0.01   0.00  -0.03     0.01  -0.00   0.14    -0.10   0.01   0.02
     7   6    -0.00  -0.00   0.05     0.00   0.01  -0.08    -0.00  -0.11  -0.01
     8   6    -0.00  -0.00  -0.12     0.01   0.01  -0.32    -0.12  -0.13  -0.04
     9   1    -0.01  -0.00  -0.11     0.01   0.00   0.58    -0.13  -0.01   0.08
    10   6    -0.00  -0.00  -0.07     0.00   0.01  -0.13    -0.03  -0.16  -0.01
    11   6    -0.00  -0.01  -0.12     0.00   0.02  -0.00    -0.03  -0.21   0.01
    12   1    -0.01  -0.01  -0.21     0.02   0.01  -0.40    -0.22  -0.17  -0.04
    13   1    -0.00  -0.00  -0.25    -0.00   0.02   0.20    -0.02  -0.21   0.04
    14   7    -0.00   0.01  -0.14     0.01   0.00   0.03    -0.12  -0.05   0.01
    15   7    -0.00   0.01   0.03     0.00   0.00   0.00    -0.06  -0.02  -0.00
    16   1    -0.00   0.01   0.13     0.00   0.00  -0.00    -0.02  -0.04  -0.01
    17   6     0.00   0.00   0.06     0.00   0.00  -0.01    -0.02  -0.01  -0.00
    18   6    -0.00  -0.00   0.04    -0.00  -0.00  -0.00     0.04   0.01  -0.00
    19   6     0.01  -0.00   0.03    -0.00   0.00  -0.00     0.03  -0.03  -0.00
    20   6    -0.00  -0.01  -0.02    -0.00   0.00   0.00     0.05   0.01   0.00
    21   1    -0.01   0.00   0.07    -0.01   0.00  -0.01     0.07  -0.02  -0.01
    22   6     0.01  -0.01  -0.06    -0.00   0.00   0.01     0.04  -0.03   0.00
    23   1     0.02   0.00   0.03    -0.01   0.00  -0.01     0.06  -0.02  -0.00
    24   6     0.00  -0.01  -0.04    -0.01   0.00   0.01     0.08  -0.01   0.00
    25   1    -0.01  -0.02   0.00    -0.00   0.00   0.00     0.03  -0.01  -0.00
    26   1     0.01  -0.02  -0.11    -0.00   0.00   0.01     0.02  -0.01   0.01
    27   7    -0.00  -0.01   0.02    -0.01   0.00  -0.00     0.09  -0.00  -0.00
    28   1     0.08   0.21  -0.45    -0.01  -0.01   0.01     0.10  -0.02   0.05
    29   1     0.01   0.22   0.61    -0.01  -0.01  -0.03     0.09  -0.02  -0.05
    30   8    -0.00   0.00  -0.09     0.01  -0.01  -0.01    -0.10   0.07   0.00
    31   8    -0.00  -0.00  -0.02    -0.03  -0.00   0.04     0.31   0.02   0.01
    32   1    -0.00  -0.00  -0.04    -0.03  -0.03   0.04     0.31   0.30   0.01
    33  16     0.00   0.00   0.03     0.00  -0.01   0.04     0.01   0.08   0.00
    34   8    -0.09   0.03   0.01    -0.17   0.03   0.00     0.14   0.15   0.07
    35   8     0.01   0.01   0.06     0.05   0.01   0.09    -0.28   0.03   0.03
    36   8     0.09  -0.03   0.02     0.11  -0.06   0.04     0.22   0.10  -0.09
    37  16     0.00  -0.00   0.02    -0.00   0.00  -0.05     0.04  -0.01  -0.01
    38   8     0.02   0.05   0.01    -0.05  -0.18  -0.02     0.11   0.04  -0.05
    39   8    -0.01  -0.01   0.02     0.00   0.01  -0.11    -0.05  -0.09  -0.02
    40   8    -0.01  -0.05   0.01     0.03   0.17  -0.03     0.12   0.09   0.04
                     25                     26                     27
                      A                      A                      A
 Frequencies --    363.3087               389.9171               417.5068
 Red. masses --      4.4353                 4.1956                 4.4407
 Frc consts  --      0.3449                 0.3758                 0.4561
 IR Inten    --      7.8280                21.7008                56.5714
  Atom  AN      X      Y      Z        X      Y      Z        X      Y      Z
     1   6    -0.00   0.09   0.00     0.00   0.00   0.07     0.04   0.12  -0.00
     2   6     0.03   0.05   0.00    -0.00  -0.00   0.04     0.04   0.13  -0.00
     3   6    -0.00  -0.02   0.00     0.00   0.00  -0.01     0.01  -0.01   0.00
     4   6    -0.02  -0.03   0.00     0.00   0.00  -0.01    -0.02  -0.02   0.00
     5   6    -0.05   0.00  -0.00     0.00   0.00  -0.00    -0.04   0.00  -0.00
     6   6    -0.05   0.04  -0.00     0.00   0.00   0.00    -0.02   0.07  -0.00
     7   6    -0.03  -0.02   0.00     0.00   0.00  -0.01    -0.01  -0.02   0.00
     8   6    -0.02  -0.02  -0.00     0.00   0.00   0.00    -0.02  -0.03  -0.00
     9   1    -0.09  -0.01  -0.00     0.00   0.00   0.01    -0.08  -0.01   0.00
    10   6    -0.02  -0.01  -0.00     0.00  -0.00   0.00    -0.02  -0.02  -0.00
    11   6    -0.03  -0.00  -0.00     0.00   0.00   0.00    -0.00  -0.02  -0.00
    12   1    -0.01  -0.02  -0.00     0.00   0.00   0.01    -0.03  -0.03  -0.00
    13   1    -0.03  -0.00  -0.00     0.00   0.00   0.01     0.01  -0.02  -0.00
    14   7     0.02   0.18  -0.00    -0.00  -0.00  -0.14     0.05   0.06   0.00
    15   7    -0.01   0.15   0.01    -0.00  -0.00   0.28    -0.04  -0.02  -0.00
    16   1    -0.09   0.19   0.01     0.00   0.00   0.59    -0.15   0.05  -0.00
    17   6    -0.01  -0.03  -0.00    -0.00   0.00  -0.18    -0.03  -0.12   0.00
    18   6    -0.03  -0.05  -0.01    -0.00   0.00  -0.17     0.07  -0.08  -0.01
    19   6     0.05  -0.07   0.00    -0.00   0.00  -0.17    -0.08  -0.09   0.00
    20   6    -0.00  -0.13  -0.01     0.00   0.00   0.13     0.08   0.12   0.01
    21   1    -0.06  -0.04  -0.02    -0.00   0.00  -0.26     0.20  -0.17  -0.01
    22   6     0.01  -0.15   0.01     0.00  -0.00   0.12    -0.05   0.11  -0.01
    23   1     0.10  -0.04   0.02    -0.00   0.00  -0.20    -0.19  -0.14   0.00
    24   6     0.02  -0.13  -0.00    -0.00   0.00   0.17     0.03   0.15   0.00
    25   1    -0.06  -0.16  -0.04     0.00   0.00   0.16     0.20   0.18   0.02
    26   1     0.05  -0.17   0.04     0.00  -0.00   0.17    -0.18   0.20  -0.04
    27   7     0.05   0.24   0.00     0.02  -0.00  -0.07     0.02  -0.18   0.00
    28   1     0.34   0.25   0.33    -0.11   0.03  -0.33    -0.28  -0.26  -0.15
    29   1    -0.23   0.30  -0.33    -0.11  -0.01  -0.29     0.27  -0.31   0.10
    30   8     0.06   0.08  -0.00    -0.00  -0.00  -0.08     0.10   0.18  -0.00
    31   8    -0.14  -0.08  -0.00     0.00   0.00   0.01    -0.14  -0.10  -0.00
    32   1    -0.15  -0.18  -0.00     0.00   0.00  -0.05    -0.15  -0.22   0.00
    33  16     0.01   0.00   0.00    -0.00  -0.00  -0.00    -0.00  -0.00  -0.00
    34   8     0.02  -0.00   0.00     0.00  -0.00   0.00     0.02   0.01   0.01
    35   8     0.02   0.00   0.00    -0.00  -0.00  -0.00    -0.00  -0.00   0.00
    36   8     0.02  -0.00  -0.00    -0.00   0.00  -0.00     0.02   0.01  -0.01
    37  16     0.01  -0.03   0.00    -0.00   0.00   0.00    -0.00  -0.01  -0.00
    38   8     0.06  -0.00  -0.03     0.00   0.01   0.01     0.04  -0.03  -0.03
    39   8    -0.06  -0.10   0.00    -0.00  -0.00  -0.00    -0.06  -0.07   0.00
    40   8     0.06  -0.01   0.03    -0.00  -0.01   0.00     0.04  -0.04   0.03
                     28                     29                     30
                      A                      A                      A
 Frequencies --    428.5219               433.6072               475.8328
 Red. masses --      3.2112                 6.1395                 8.0599
 Frc consts  --      0.3474                 0.6801                 1.0752
 IR Inten    --      2.9657                64.3741                92.2441
  Atom  AN      X      Y      Z        X      Y      Z        X      Y      Z
     1   6    -0.00  -0.00   0.07     0.00  -0.00  -0.32    -0.20  -0.01   0.00
     2   6    -0.00  -0.00   0.03    -0.00  -0.00  -0.15    -0.01  -0.12   0.00
     3   6     0.00  -0.00  -0.04    -0.00   0.00   0.14     0.06  -0.08  -0.00
     4   6     0.00   0.00  -0.02     0.00   0.00   0.09     0.10  -0.04  -0.00
     5   6     0.00   0.00  -0.01     0.00  -0.00   0.05    -0.08   0.05  -0.00
     6   6    -0.00  -0.00   0.04     0.00  -0.00  -0.20    -0.11   0.05   0.00
     7   6     0.00   0.00  -0.02     0.00  -0.00   0.10     0.08  -0.06  -0.00
     8   6     0.00   0.00   0.02     0.00  -0.00  -0.08     0.14   0.11   0.00
     9   1     0.00   0.00  -0.04     0.00   0.00   0.19    -0.19  -0.00  -0.01
    10   6     0.00   0.00   0.02     0.00  -0.00  -0.09     0.10   0.15   0.00
    11   6     0.00   0.00   0.01     0.00  -0.00  -0.02     0.09   0.12   0.00
    12   1     0.00   0.00   0.04     0.00  -0.00  -0.17     0.26   0.16   0.01
    13   1     0.00   0.00   0.03     0.00   0.00  -0.10    -0.01   0.19  -0.00
    14   7    -0.00  -0.00  -0.06     0.00  -0.00   0.30    -0.22   0.07  -0.00
    15   7    -0.00   0.00  -0.02     0.00  -0.00   0.05    -0.22   0.05  -0.01
    16   1     0.00   0.00   0.06     0.00  -0.01  -0.39    -0.26   0.07  -0.01
    17   6     0.00   0.00   0.02     0.00   0.00  -0.02    -0.17  -0.03   0.02
    18   6    -0.00   0.00  -0.19    -0.00   0.00  -0.18    -0.01   0.03   0.01
    19   6     0.00   0.00   0.23    -0.00   0.00  -0.01    -0.05  -0.12   0.00
    20   6     0.00  -0.00   0.20    -0.00  -0.00   0.12     0.04   0.10  -0.01
    21   1    -0.00   0.00  -0.46    -0.01   0.01  -0.39     0.13  -0.06  -0.01
    22   6    -0.00  -0.00  -0.22    -0.00  -0.01  -0.05    -0.00  -0.07  -0.01
    23   1     0.01   0.00   0.47     0.00   0.00  -0.04     0.03  -0.08  -0.02
    24   6     0.00  -0.00  -0.02    -0.00  -0.00   0.11     0.17   0.02   0.00
    25   1     0.00  -0.01   0.41    -0.01  -0.00   0.15    -0.03   0.06  -0.04
    26   1    -0.00  -0.00  -0.44     0.00  -0.01  -0.21    -0.14   0.03  -0.04
    27   7    -0.00   0.00   0.00     0.02   0.00  -0.02     0.24  -0.04   0.04
    28   1     0.02  -0.01   0.07    -0.07   0.02  -0.19     0.10  -0.02  -0.21
    29   1     0.00  -0.01  -0.01    -0.09  -0.01  -0.25     0.19  -0.08  -0.17
    30   8    -0.00  -0.00  -0.01    -0.00   0.00   0.08     0.05  -0.12   0.00
    31   8     0.00   0.00   0.01     0.00   0.00  -0.04     0.12  -0.05   0.00
    32   1     0.00   0.00  -0.01     0.00   0.00   0.07     0.13  -0.01   0.00
    33  16    -0.00  -0.00   0.00    -0.00   0.00  -0.01     0.01   0.06   0.00
    34   8     0.01  -0.01   0.00    -0.04   0.04  -0.01    -0.07  -0.13  -0.11
    35   8    -0.00  -0.00  -0.02     0.00   0.01   0.08    -0.02   0.06  -0.03
    36   8    -0.01   0.01  -0.00     0.03  -0.05   0.01    -0.08  -0.07   0.14
    37  16    -0.00   0.00   0.00     0.00   0.00  -0.02    -0.02   0.02   0.00
    38   8     0.01  -0.02  -0.00    -0.03   0.07  -0.00     0.05  -0.01  -0.05
    39   8     0.00   0.00  -0.02    -0.00   0.00   0.12    -0.03   0.01  -0.00
    40   8    -0.01   0.02  -0.00     0.03  -0.07  -0.00     0.04  -0.01   0.05
                     31                     32                     33
                      A                      A                      A
 Frequencies --    490.6847               495.5652               499.7551
 Red. masses --      6.7269                 3.3221                10.7176
 Frc consts  --      0.9543                 0.4807                 1.5771
 IR Inten    --     39.6638               426.2528                25.6645
  Atom  AN      X      Y      Z        X      Y      Z        X      Y      Z
     1   6    -0.06  -0.05   0.01     0.01   0.03  -0.02     0.00   0.05   0.08
     2   6     0.03  -0.05  -0.00    -0.05   0.09   0.00    -0.08   0.12  -0.02
     3   6    -0.04  -0.07  -0.01    -0.05  -0.03   0.02    -0.05  -0.02  -0.11
     4   6    -0.06  -0.08   0.01     0.01  -0.01  -0.02     0.04   0.01   0.05
     5   6    -0.09  -0.09   0.00     0.05  -0.02  -0.01     0.07   0.01  -0.06
     6   6    -0.08  -0.04  -0.02     0.05   0.03   0.03     0.07   0.05   0.01
     7   6    -0.15   0.05   0.00    -0.03  -0.06   0.00     0.03  -0.12   0.04
     8   6    -0.06  -0.00   0.01     0.02   0.03  -0.01     0.05   0.05   0.14
     9   1    -0.12  -0.10   0.00     0.03  -0.03  -0.00     0.06  -0.00  -0.15
    10   6    -0.11   0.06  -0.02     0.02   0.03   0.03     0.07   0.03  -0.15
    11   6    -0.17   0.03   0.01    -0.03  -0.01  -0.02     0.04  -0.01   0.13
    12   1     0.01   0.03   0.02     0.03   0.03  -0.02     0.04   0.05   0.23
    13   1    -0.21   0.06   0.02    -0.09   0.03  -0.05    -0.04   0.04   0.20
    14   7    -0.03  -0.11   0.01    -0.02  -0.14  -0.01    -0.02  -0.08  -0.04
    15   7     0.04  -0.06   0.02     0.02  -0.11  -0.03    -0.00  -0.07   0.00
    16   1     0.07  -0.08   0.04     0.08  -0.15  -0.05     0.03  -0.09   0.11
    17   6     0.04   0.01  -0.06     0.02   0.06   0.08     0.00   0.05  -0.06
    18   6     0.02  -0.00  -0.00    -0.02   0.07   0.00    -0.01   0.05   0.02
    19   6     0.02   0.02   0.00     0.01   0.08  -0.01     0.02   0.05   0.03
    20   6     0.00  -0.03   0.03    -0.03  -0.03  -0.04    -0.02  -0.02   0.01
    21   1    -0.01   0.01   0.06    -0.09   0.12  -0.10    -0.05   0.08   0.12
    22   6     0.01   0.02   0.02     0.01  -0.03  -0.03     0.02  -0.02   0.01
    23   1     0.01   0.02   0.08     0.05   0.10  -0.12     0.06   0.07   0.14
    24   6    -0.02  -0.01  -0.03    -0.03  -0.04   0.05    -0.00  -0.03  -0.06
    25   1     0.02  -0.03   0.12    -0.08  -0.05  -0.16    -0.06  -0.04   0.11
    26   1     0.04  -0.01   0.11     0.07  -0.07  -0.15     0.06  -0.04   0.12
    27   7    -0.09   0.01  -0.08     0.04   0.02   0.09    -0.02   0.02  -0.02
    28   1     0.12  -0.07   0.44    -0.14   0.14  -0.51     0.12   0.00   0.21
    29   1     0.11   0.06   0.41    -0.28   0.00  -0.52     0.03   0.06   0.18
    30   8     0.35   0.07  -0.00     0.06   0.17   0.00    -0.09   0.14   0.00
    31   8     0.06   0.16  -0.00     0.02  -0.07   0.00     0.03  -0.16  -0.02
    32   1     0.05   0.24  -0.01     0.01  -0.03   0.01     0.02  -0.12  -0.04
    33  16    -0.02   0.06  -0.02     0.00   0.03   0.03     0.02   0.03  -0.20
    34   8     0.05  -0.10  -0.06    -0.01  -0.09  -0.02    -0.03   0.18  -0.17
    35   8     0.09   0.09   0.02    -0.00   0.02  -0.08    -0.03   0.10   0.41
    36   8     0.05  -0.12   0.08    -0.01   0.02   0.05    -0.06  -0.33   0.08
    37  16    -0.05   0.01  -0.01     0.00   0.02   0.02     0.02   0.01  -0.00
    38   8     0.06   0.02  -0.08     0.02  -0.05   0.01    -0.04  -0.02   0.04
    39   8     0.00   0.06   0.03    -0.03  -0.01  -0.05    -0.02  -0.04   0.01
    40   8     0.08   0.00   0.08    -0.03  -0.01   0.00    -0.03  -0.03  -0.04
                     34                     35                     36
                      A                      A                      A
 Frequencies --    501.7433               508.5635               510.0966
 Red. masses --      3.7736                 6.3646                 9.7430
 Frc consts  --      0.5597                 0.9699                 1.4936
 IR Inten    --    379.3664               332.8090                44.3875
  Atom  AN      X      Y      Z        X      Y      Z        X      Y      Z
     1   6    -0.01   0.03   0.02     0.01  -0.01   0.17     0.03   0.01  -0.08
     2   6    -0.06   0.08   0.02     0.04  -0.03   0.09     0.02   0.02  -0.04
     3   6    -0.03  -0.01   0.00     0.04   0.02  -0.09     0.06   0.03   0.04
     4   6     0.02   0.01   0.01    -0.00   0.00   0.03     0.01   0.01  -0.01
     5   6     0.04   0.01   0.06    -0.02   0.01   0.06    -0.04   0.02  -0.03
     6   6     0.04   0.03  -0.06    -0.02   0.01  -0.07    -0.04   0.05   0.02
     7   6     0.02  -0.09  -0.04     0.03   0.05  -0.09     0.12  -0.00   0.04
     8   6     0.03   0.04  -0.05    -0.00  -0.01  -0.00     0.02   0.05   0.00
     9   1     0.03  -0.00   0.09    -0.03   0.01   0.03    -0.07   0.00  -0.01
    10   6     0.05   0.03   0.03    -0.01  -0.01  -0.02     0.06   0.02   0.01
    11   6     0.03  -0.01  -0.03     0.03   0.02   0.04     0.14   0.06  -0.02
    12   1     0.03   0.04  -0.09    -0.00  -0.01   0.01     0.03   0.05  -0.00
    13   1    -0.04   0.04   0.01     0.08  -0.01   0.20     0.16   0.05  -0.09
    14   7    -0.01  -0.04   0.02    -0.01  -0.06  -0.05     0.03  -0.10   0.03
    15   7    -0.00  -0.03   0.03    -0.00  -0.05  -0.06     0.04  -0.09   0.04
    16   1     0.01  -0.03   0.03     0.04  -0.07   0.06     0.11  -0.13  -0.02
    17   6     0.01   0.02  -0.10    -0.00   0.03   0.03     0.05   0.05  -0.04
    18   6     0.01   0.02  -0.00    -0.02   0.03   0.04     0.01   0.04  -0.02
    19   6     0.02   0.02   0.01    -0.01   0.03   0.03     0.04   0.07  -0.01
    20   6    -0.00  -0.02   0.04    -0.02  -0.00  -0.04    -0.02  -0.04   0.03
    21   1    -0.01   0.03   0.13    -0.04   0.05   0.03    -0.06   0.09   0.02
    22   6     0.01   0.00   0.03    -0.00  -0.02  -0.04     0.02   0.01   0.02
    23   1     0.04   0.03   0.15     0.02   0.04   0.02     0.06   0.08   0.03
    24   6     0.01  -0.01  -0.07    -0.02  -0.02  -0.01    -0.03  -0.03  -0.02
    25   1    -0.02  -0.02   0.19    -0.04  -0.01  -0.07    -0.04  -0.05   0.09
    26   1     0.03  -0.01   0.18     0.02  -0.04  -0.06     0.09  -0.04   0.08
    27   7    -0.06   0.01  -0.09     0.06   0.00   0.11    -0.09   0.02  -0.07
    28   1     0.21  -0.08   0.55    -0.15   0.11  -0.50     0.12  -0.03   0.38
    29   1     0.19   0.07   0.52    -0.21  -0.04  -0.48     0.04   0.08   0.34
    30   8    -0.07   0.08  -0.02     0.04  -0.03  -0.03    -0.13  -0.05   0.01
    31   8     0.03  -0.12   0.02    -0.04   0.04   0.03    -0.04  -0.09  -0.01
    32   1     0.03  -0.07   0.00    -0.04  -0.04  -0.02    -0.03  -0.16   0.01
    33  16     0.02   0.03   0.06    -0.01  -0.04  -0.02     0.02  -0.04   0.01
    34   8    -0.04  -0.11  -0.02     0.01   0.09   0.04    -0.03   0.06   0.03
    35   8    -0.03   0.00  -0.13     0.01  -0.04   0.05    -0.03  -0.05   0.00
    36   8    -0.02   0.07   0.06     0.00   0.01  -0.07    -0.04   0.06  -0.04
    37  16     0.02   0.00  -0.06    -0.05   0.03  -0.14    -0.17   0.09   0.06
    38   8    -0.10   0.04   0.01    -0.10   0.06  -0.13     0.28  -0.19  -0.25
    39   8    -0.01  -0.02   0.14    -0.05   0.04   0.30    -0.17   0.13  -0.14
    40   8     0.05  -0.06  -0.04     0.23  -0.14   0.05     0.13  -0.10   0.28
                     37                     38                     39
                      A                      A                      A
 Frequencies --    518.6783               546.3767               562.3607
 Red. masses --      7.5965                 2.3700                 6.7917
 Frc consts  --      1.2041                 0.4169                 1.2655
 IR Inten    --     56.5073               247.9062                50.0313
  Atom  AN      X      Y      Z        X      Y      Z        X      Y      Z
     1   6    -0.13  -0.02  -0.04    -0.02  -0.01   0.03    -0.01  -0.03  -0.00
     2   6     0.02  -0.02  -0.02    -0.01   0.00   0.02    -0.05   0.01  -0.00
     3   6     0.05   0.02   0.02    -0.00  -0.00  -0.01    -0.09  -0.07   0.00
     4   6     0.03   0.06  -0.00    -0.01   0.01  -0.01    -0.14  -0.05   0.00
     5   6    -0.02   0.10  -0.01    -0.02   0.01  -0.00    -0.07  -0.14   0.00
     6   6    -0.02   0.03  -0.00    -0.02  -0.01   0.03    -0.07  -0.10  -0.01
     7   6     0.05   0.06   0.02     0.02  -0.02  -0.02     0.04  -0.15   0.00
     8   6     0.02   0.03  -0.00    -0.01   0.03   0.01    -0.12   0.28  -0.00
     9   1    -0.02   0.10   0.01    -0.02   0.01  -0.03    -0.05  -0.13   0.01
    10   6     0.03   0.00   0.00     0.01   0.02   0.01    -0.00   0.22  -0.00
    11   6     0.07   0.06  -0.01     0.02   0.02   0.01     0.06   0.20  -0.00
    12   1     0.01   0.02  -0.01    -0.01   0.04   0.02    -0.00   0.33  -0.01
    13   1     0.12   0.02  -0.03     0.01   0.04   0.03    -0.15   0.34  -0.01
    14   7    -0.16  -0.19   0.02    -0.01  -0.01  -0.03     0.02   0.05   0.01
    15   7    -0.12  -0.14   0.03     0.00   0.00  -0.06     0.07   0.07   0.01
    16   1    -0.07  -0.18   0.00     0.00  -0.00  -0.02     0.06   0.08   0.00
    17   6    -0.09   0.07  -0.07     0.01  -0.00   0.20     0.07  -0.04  -0.05
    18   6    -0.02   0.13  -0.00     0.01  -0.01  -0.04     0.02  -0.09   0.01
    19   6    -0.01   0.03   0.01     0.01  -0.00  -0.06     0.02  -0.02   0.02
    20   6    -0.02   0.01   0.03     0.01  -0.01  -0.01     0.02  -0.02  -0.01
    21   1    -0.03   0.13   0.09     0.01  -0.00  -0.42     0.02  -0.09   0.12
    22   6     0.01  -0.07   0.02     0.01   0.01  -0.00     0.01   0.04  -0.01
    23   1     0.11   0.09   0.11     0.01  -0.00  -0.44    -0.05  -0.05   0.13
    24   6     0.09  -0.05  -0.05     0.01  -0.00   0.20    -0.06   0.03  -0.05
    25   1    -0.15  -0.05   0.14     0.01  -0.01  -0.42     0.11   0.02   0.11
    26   1     0.01  -0.07   0.13     0.01   0.01  -0.38     0.03   0.03   0.09
    27   7     0.08   0.01  -0.05    -0.05   0.00  -0.11    -0.05  -0.00   0.06
    28   1     0.28  -0.02   0.31     0.07  -0.07   0.29    -0.18   0.04  -0.24
    29   1     0.17   0.07   0.27     0.09   0.06   0.27    -0.14  -0.05  -0.22
    30   8     0.25   0.08   0.01     0.01   0.01  -0.00     0.02   0.04   0.00
    31   8    -0.11  -0.01  -0.01     0.01  -0.04   0.00     0.16  -0.17   0.00
    32   1    -0.12  -0.21   0.01     0.01  -0.04  -0.00     0.16  -0.02   0.00
    33  16    -0.00  -0.13   0.00     0.01  -0.01  -0.01    -0.02  -0.08   0.00
    34   8    -0.01   0.18   0.13    -0.00   0.02   0.00     0.00   0.08   0.08
    35   8     0.00  -0.14   0.04    -0.00  -0.01   0.01     0.07  -0.07   0.02
    36   8    -0.02   0.12  -0.18    -0.01   0.00  -0.01    -0.01   0.04  -0.10
    37  16     0.05  -0.02   0.02    -0.00  -0.01  -0.01    -0.02  -0.08   0.00
    38   8    -0.03   0.02   0.08    -0.02   0.02  -0.00     0.01   0.08  -0.02
    39   8     0.03  -0.05  -0.04     0.01   0.00   0.03     0.10   0.03  -0.00
    40   8    -0.08   0.05  -0.07     0.02   0.01  -0.01     0.00   0.08   0.02
                     40                     41                     42
                      A                      A                      A
 Frequencies --    573.1158               602.4189               615.6521
 Red. masses --      6.6998                 7.8525                 6.2704
 Frc consts  --      1.2966                 1.6790                 1.4003
 IR Inten    --     29.4513               259.8645                24.0636
  Atom  AN      X      Y      Z        X      Y      Z        X      Y      Z
     1   6    -0.02  -0.03  -0.00    -0.16  -0.04   0.00     0.00  -0.00  -0.08
     2   6     0.07  -0.01   0.00    -0.06  -0.11  -0.00     0.00   0.00  -0.15
     3   6     0.09   0.12   0.00    -0.07  -0.01  -0.00     0.00   0.00   0.03
     4   6    -0.14   0.09   0.00     0.07   0.12   0.00     0.00  -0.00  -0.28
     5   6    -0.19   0.13  -0.00    -0.06   0.24  -0.00     0.00  -0.00   0.02
     6   6    -0.16  -0.04  -0.01    -0.07   0.09   0.00    -0.00  -0.00   0.39
     7   6     0.21   0.07  -0.00    -0.10  -0.04   0.01    -0.00   0.00   0.35
     8   6    -0.15  -0.03  -0.00     0.08   0.03   0.00    -0.00  -0.00   0.03
     9   1    -0.11   0.17   0.00    -0.08   0.23  -0.01     0.00  -0.00  -0.04
    10   6    -0.00  -0.10  -0.00     0.13  -0.01  -0.00     0.00  -0.00   0.07
    11   6     0.22   0.00   0.00    -0.09  -0.09   0.00     0.00  -0.00  -0.07
    12   1    -0.27  -0.09  -0.01    -0.02  -0.01   0.00    -0.00  -0.00   0.26
    13   1     0.40  -0.12   0.01    -0.19  -0.01  -0.00     0.01  -0.00  -0.68
    14   7    -0.01  -0.09   0.00    -0.11  -0.01   0.00     0.00   0.00  -0.03
    15   7     0.04  -0.07   0.00     0.11   0.09   0.00    -0.00  -0.00   0.04
    16   1     0.08  -0.10  -0.00     0.20   0.05   0.00    -0.00  -0.00   0.06
    17   6     0.06   0.01  -0.02     0.17  -0.06  -0.02    -0.00   0.00  -0.01
    18   6     0.03  -0.00   0.01     0.08  -0.17   0.01    -0.00   0.00  -0.00
    19   6     0.02   0.05   0.01     0.10  -0.01   0.01    -0.00   0.00  -0.00
    20   6     0.02  -0.04  -0.00     0.07  -0.09  -0.01    -0.00   0.00   0.00
    21   1    -0.01   0.03   0.06     0.06  -0.16   0.05    -0.00   0.00   0.02
    22   6     0.01   0.02  -0.01     0.07   0.11  -0.01    -0.00  -0.00   0.00
    23   1     0.00   0.04   0.06    -0.06  -0.08   0.05     0.00   0.00   0.02
    24   6    -0.05  -0.01  -0.02    -0.12   0.04  -0.01     0.00  -0.00  -0.01
    25   1     0.04  -0.03   0.05     0.27   0.01   0.03    -0.00   0.00   0.04
    26   1     0.07  -0.02   0.04     0.14   0.05   0.03    -0.00  -0.00   0.04
    27   7    -0.05   0.00   0.03    -0.17   0.01   0.04     0.00  -0.00   0.00
    28   1    -0.10   0.04  -0.14    -0.29   0.04  -0.19     0.00   0.00  -0.00
    29   1    -0.12  -0.01  -0.14    -0.23  -0.03  -0.18     0.00  -0.00  -0.00
    30   8     0.03  -0.04   0.00     0.13  -0.05   0.00    -0.00   0.00   0.04
    31   8    -0.11  -0.10   0.00    -0.00   0.00  -0.00    -0.00   0.00  -0.08
    32   1    -0.12  -0.39   0.00    -0.00   0.03  -0.00    -0.00  -0.00  -0.07
    33  16     0.01   0.10   0.00     0.18  -0.03  -0.00     0.01  -0.00  -0.01
    34   8     0.01  -0.09  -0.09    -0.11   0.06  -0.07     0.01   0.01  -0.01
    35   8    -0.05   0.10  -0.03    -0.12  -0.10   0.02    -0.00  -0.00   0.01
    36   8     0.02  -0.04   0.11    -0.11   0.07   0.05    -0.02  -0.00   0.00
    37  16    -0.01  -0.11   0.00     0.03   0.05  -0.00    -0.00  -0.01  -0.09
    38   8    -0.00   0.11   0.00    -0.00  -0.04   0.03    -0.10  -0.01  -0.04
    39   8     0.11  -0.00  -0.00    -0.06  -0.03  -0.00     0.01   0.00   0.10
    40   8    -0.01   0.11  -0.00    -0.00  -0.04  -0.03     0.10   0.02  -0.03
                     43                     44                     45
                      A                      A                      A
 Frequencies --    619.3025               634.8344               654.0325
 Red. masses --     15.3490                 6.2176                 4.8305
 Frc consts  --      3.4685                 1.4764                 1.2174
 IR Inten    --    250.5191                20.0351                44.3620
  Atom  AN      X      Y      Z        X      Y      Z        X      Y      Z
     1   6     0.08  -0.02   0.01    -0.00  -0.00  -0.03     0.05  -0.05  -0.11
     2   6    -0.04   0.12   0.00    -0.00   0.00   0.14     0.02  -0.05  -0.10
     3   6    -0.04   0.00  -0.01    -0.00   0.00   0.09    -0.05   0.04   0.06
     4   6     0.05  -0.08   0.02     0.00   0.00  -0.22    -0.09   0.11   0.20
     5   6     0.07  -0.20  -0.00     0.00   0.00   0.11     0.07   0.03  -0.10
     6   6     0.04  -0.19  -0.02     0.00  -0.00  -0.13     0.07  -0.05   0.24
     7   6    -0.10   0.07  -0.02    -0.00  -0.00  -0.12    -0.01  -0.04  -0.20
     8   6     0.10  -0.05   0.00     0.00   0.00  -0.08    -0.13   0.07  -0.06
     9   1     0.13  -0.17  -0.01     0.01   0.01   0.52     0.21   0.09  -0.51
    10   6     0.14  -0.05  -0.01     0.00   0.00   0.51    -0.01  -0.02   0.13
    11   6    -0.08  -0.08   0.01    -0.00  -0.01  -0.10    -0.01  -0.05  -0.02
    12   1     0.09  -0.06  -0.00    -0.00  -0.00  -0.33    -0.26   0.01  -0.43
    13   1    -0.09  -0.07   0.06    -0.00  -0.00  -0.40    -0.04  -0.03   0.18
    14   7     0.06   0.04  -0.00    -0.00   0.00   0.04     0.05   0.02  -0.02
    15   7    -0.04   0.00  -0.00     0.00   0.00  -0.00    -0.01   0.00   0.03
    16   1    -0.12   0.05   0.00    -0.00   0.00  -0.11    -0.05   0.02  -0.00
    17   6    -0.09   0.01   0.00    -0.00  -0.00  -0.00    -0.05  -0.01  -0.00
    18   6    -0.06   0.06   0.00    -0.00  -0.00  -0.01    -0.08   0.01  -0.01
    19   6    -0.04  -0.03  -0.00     0.00  -0.00  -0.00     0.00  -0.05  -0.01
    20   6    -0.05   0.06   0.00    -0.00   0.00   0.00    -0.07   0.07   0.01
    21   1    -0.03   0.04  -0.01    -0.00  -0.00   0.01    -0.06  -0.01   0.01
    22   6    -0.03  -0.04   0.00     0.00   0.00   0.00     0.01  -0.01   0.01
    23   1     0.01   0.00  -0.01     0.00  -0.00   0.00     0.02  -0.04   0.00
    24   6     0.07  -0.01   0.00     0.00   0.00  -0.00     0.04   0.01  -0.01
    25   1    -0.14   0.02  -0.01    -0.00   0.00   0.02    -0.11   0.05   0.04
    26   1    -0.09  -0.00  -0.01    -0.00   0.00   0.01    -0.04   0.03   0.03
    27   7     0.10  -0.00  -0.01     0.00   0.00  -0.00     0.06   0.01  -0.00
    28   1     0.12  -0.01   0.02     0.00   0.00   0.00     0.09   0.01   0.02
    29   1     0.10   0.01   0.02     0.00  -0.00  -0.00     0.06   0.02   0.02
    30   8    -0.04   0.18  -0.00     0.00   0.00  -0.04     0.08  -0.04   0.03
    31   8    -0.09   0.17   0.00    -0.00  -0.00   0.05     0.01  -0.06   0.04
    32   1    -0.09   0.16   0.00    -0.00  -0.00  -0.10     0.01  -0.07   0.14
    33  16     0.30  -0.03  -0.00    -0.00  -0.00  -0.09     0.04   0.01  -0.02
    34   8    -0.16   0.08  -0.13     0.08   0.06  -0.05     0.01   0.01  -0.03
    35   8    -0.19  -0.15   0.02    -0.01   0.02   0.09    -0.02   0.00   0.02
    36   8    -0.16   0.11   0.11    -0.07  -0.08  -0.01    -0.02  -0.01   0.02
    37  16    -0.17  -0.25   0.01    -0.00  -0.00   0.01    -0.00   0.04  -0.03
    38   8     0.03   0.18  -0.15     0.01   0.00  -0.00    -0.03  -0.04  -0.01
    39   8     0.23   0.11  -0.01     0.00   0.00  -0.01    -0.03   0.02   0.03
    40   8     0.02   0.17   0.15    -0.01  -0.00   0.01     0.03  -0.02  -0.01
                     46                     47                     48
                      A                      A                      A
 Frequencies --    654.6614               655.9908               662.6557
 Red. masses --      5.3967                 8.9586                 7.4631
 Frc consts  --      1.3627                 2.2714                 1.9308
 IR Inten    --     76.0170               219.0332               109.8251
  Atom  AN      X      Y      Z        X      Y      Z        X      Y      Z
     1   6    -0.07   0.07  -0.09     0.06   0.04  -0.00     0.01  -0.03   0.01
     2   6    -0.03   0.06  -0.08     0.07  -0.00  -0.00    -0.03  -0.06   0.00
     3   6     0.07  -0.06   0.05     0.02  -0.02   0.00    -0.07   0.03  -0.00
     4   6     0.13  -0.14   0.16    -0.16  -0.13   0.01     0.08   0.20  -0.00
     5   6    -0.08  -0.03  -0.08    -0.13  -0.20  -0.00     0.13   0.24   0.00
     6   6    -0.09   0.08   0.20    -0.08  -0.01   0.01     0.09  -0.01  -0.01
     7   6     0.01   0.04  -0.16     0.02   0.04  -0.01    -0.07  -0.09   0.01
     8   6     0.20  -0.10  -0.05    -0.15   0.05  -0.01     0.04   0.03   0.00
     9   1    -0.28  -0.12  -0.41    -0.21  -0.24  -0.01     0.28   0.31   0.01
    10   6     0.01   0.03   0.11    -0.03   0.03   0.02     0.03  -0.02  -0.01
    11   6     0.02   0.06  -0.02     0.04   0.08  -0.00    -0.10  -0.11   0.00
    12   1     0.37  -0.03  -0.33    -0.11   0.07  -0.03    -0.08  -0.02   0.01
    13   1     0.05   0.04   0.15     0.05   0.07  -0.00    -0.20  -0.05  -0.00
    14   7    -0.08  -0.02  -0.01     0.08   0.04  -0.00     0.02   0.08  -0.00
    15   7     0.01  -0.00   0.03     0.00  -0.02   0.00     0.01   0.07  -0.00
    16   1     0.07  -0.03  -0.01    -0.03  -0.00   0.00    -0.03   0.09   0.00
    17   6     0.07   0.01  -0.01    -0.01   0.08   0.00    -0.01   0.06   0.00
    18   6     0.11  -0.01  -0.01     0.22   0.16  -0.00     0.21   0.11  -0.00
    19   6    -0.00   0.06  -0.00    -0.23   0.18  -0.00    -0.21   0.14   0.00
    20   6     0.10  -0.09   0.00     0.19  -0.14  -0.00     0.20  -0.14  -0.00
    21   1     0.08   0.01   0.02     0.15   0.21  -0.00     0.17   0.14  -0.00
    22   6    -0.01   0.01   0.00    -0.24  -0.14   0.00    -0.23  -0.12   0.00
    23   1    -0.02   0.05   0.02    -0.14   0.22  -0.00    -0.15   0.16  -0.00
    24   6    -0.05  -0.01  -0.01     0.01  -0.08  -0.00     0.00  -0.07  -0.00
    25   1     0.16  -0.06   0.04     0.09  -0.19   0.00     0.14  -0.17  -0.00
    26   1     0.06  -0.04   0.04    -0.19  -0.18   0.00    -0.20  -0.15  -0.00
    27   7    -0.09  -0.01   0.01     0.02  -0.06  -0.00     0.01  -0.06  -0.00
    28   1    -0.12  -0.01  -0.04    -0.03  -0.09   0.01    -0.06  -0.09  -0.00
    29   1    -0.08  -0.03  -0.03     0.08  -0.09   0.03     0.08  -0.10   0.02
    30   8    -0.11   0.06   0.02    -0.01  -0.06   0.00     0.06  -0.03   0.00
    31   8    -0.02   0.08   0.04    -0.00   0.06   0.00     0.05  -0.11  -0.00
    32   1    -0.02   0.10   0.11    -0.00   0.06   0.00     0.04  -0.04  -0.00
    33  16    -0.06  -0.01  -0.01     0.16  -0.01  -0.00    -0.08   0.00   0.00
    34   8     0.03   0.01   0.03    -0.06   0.03  -0.08     0.03  -0.02   0.04
    35   8     0.03   0.01   0.02    -0.07  -0.06   0.01     0.04   0.03  -0.01
    36   8     0.00  -0.03  -0.04    -0.06   0.05   0.07     0.03  -0.03  -0.04
    37  16    -0.00  -0.06  -0.02     0.11   0.13  -0.00    -0.09  -0.09   0.00
    38   8    -0.03   0.03  -0.01    -0.00  -0.06   0.09     0.01   0.04  -0.08
    39   8     0.05  -0.02   0.02    -0.08  -0.05   0.00     0.05   0.04  -0.00
    40   8     0.02   0.05  -0.01     0.00  -0.06  -0.09     0.00   0.04   0.08
                     49                     50                     51
                      A                      A                      A
 Frequencies --    716.5281               735.9775               738.5123
 Red. masses --      4.3964                 6.3232                 3.9600
 Frc consts  --      1.3299                 2.0180                 1.2725
 IR Inten    --      1.9020                 8.5660                 2.8080
  Atom  AN      X      Y      Z        X      Y      Z        X      Y      Z
     1   6     0.00   0.00   0.20     0.16   0.15   0.01    -0.04  -0.04   0.03
     2   6     0.00   0.00  -0.21     0.15   0.01  -0.00    -0.04  -0.00  -0.01
     3   6     0.00  -0.00  -0.19     0.04  -0.05  -0.01    -0.01   0.01  -0.03
     4   6    -0.00  -0.00   0.25     0.03  -0.01   0.01    -0.01   0.00   0.03
     5   6    -0.00   0.00   0.01    -0.20   0.21  -0.00     0.05  -0.05   0.00
     6   6    -0.00   0.00  -0.12    -0.15   0.17  -0.01     0.04  -0.04  -0.02
     7   6    -0.00   0.00   0.23    -0.11  -0.09   0.01     0.03   0.02   0.03
     8   6     0.00  -0.00  -0.13     0.04   0.02  -0.00    -0.01  -0.01  -0.01
     9   1    -0.01  -0.00  -0.15    -0.34   0.15  -0.01     0.09  -0.04  -0.01
    10   6     0.00   0.00   0.14    -0.03   0.07   0.00     0.01  -0.02   0.01
    11   6     0.00  -0.00  -0.09    -0.18  -0.01  -0.00     0.05   0.00  -0.01
    12   1     0.00  -0.01  -0.50     0.11   0.05  -0.02    -0.02  -0.01  -0.04
    13   1     0.00   0.00  -0.57    -0.36   0.12  -0.03     0.10  -0.03  -0.06
    14   7     0.00  -0.00  -0.03     0.21  -0.04  -0.00    -0.06   0.01  -0.01
    15   7    -0.00  -0.00  -0.03     0.04  -0.16  -0.02    -0.00   0.04  -0.05
    16   1    -0.00  -0.00   0.26     0.01  -0.15   0.02     0.01   0.04   0.06
    17   6    -0.00   0.00  -0.03    -0.01   0.00   0.12     0.01  -0.00   0.28
    18   6     0.00   0.00   0.03    -0.08   0.05  -0.06     0.02  -0.02  -0.14
    19   6     0.00  -0.00   0.03    -0.01   0.02  -0.07    -0.00  -0.00  -0.15
    20   6    -0.00   0.00  -0.02    -0.09   0.06   0.06     0.02  -0.02   0.13
    21   1     0.00   0.00  -0.00    -0.12   0.07  -0.15     0.02  -0.02  -0.34
    22   6     0.00   0.00  -0.02     0.00  -0.01   0.06    -0.00   0.00   0.13
    23   1     0.00   0.00   0.03     0.02   0.03  -0.14    -0.02  -0.01  -0.31
    24   6     0.00  -0.00   0.04     0.02  -0.01  -0.12    -0.02   0.00  -0.27
    25   1    -0.00   0.00  -0.12    -0.17   0.02   0.19     0.06  -0.01   0.47
    26   1     0.00   0.00  -0.09    -0.01   0.00   0.21     0.01  -0.01   0.50
    27   7    -0.00   0.00  -0.01     0.06   0.00   0.01    -0.01  -0.00   0.04
    28   1    -0.00  -0.00   0.00     0.12   0.02   0.03    -0.01   0.02  -0.03
    29   1    -0.00   0.01   0.01     0.05   0.02   0.02     0.01  -0.04  -0.02
    30   8    -0.00  -0.00   0.05    -0.05  -0.12   0.00     0.01   0.03   0.00
    31   8    -0.00   0.00  -0.03     0.08  -0.05  -0.00    -0.02   0.01  -0.01
    32   1    -0.00   0.00   0.02     0.08   0.17   0.00    -0.02  -0.05   0.02
    33  16    -0.00  -0.00  -0.01     0.03  -0.02  -0.00    -0.01   0.00  -0.00
    34   8     0.01   0.00  -0.00    -0.01   0.01  -0.00     0.00  -0.00   0.00
    35   8     0.00   0.00   0.01     0.00  -0.03   0.01    -0.00   0.01  -0.00
    36   8    -0.01  -0.00  -0.00    -0.01   0.01  -0.00     0.00  -0.00   0.00
    37  16     0.00  -0.00   0.02     0.00  -0.05   0.00    -0.00   0.01   0.00
    38   8     0.02   0.01   0.01    -0.00   0.03   0.01     0.00  -0.01  -0.00
    39   8     0.00  -0.00  -0.01     0.03  -0.05  -0.00    -0.01   0.01  -0.00
    40   8    -0.02  -0.01   0.01    -0.01   0.03  -0.01    -0.00  -0.01   0.00
                     52                     53                     54
                      A                      A                      A
 Frequencies --    787.7051               814.1499               820.2875
 Red. masses --      1.1176                 5.2538                 4.2851
 Frc consts  --      0.4086                 2.0518                 1.6988
 IR Inten    --    172.7387                13.8429                 1.9046
  Atom  AN      X      Y      Z        X      Y      Z        X      Y      Z
     1   6     0.00   0.00   0.04     0.00   0.00  -0.21    -0.03  -0.07  -0.00
     2   6     0.00  -0.00  -0.04    -0.00   0.00   0.41    -0.07  -0.01   0.01
     3   6    -0.00   0.00   0.04     0.00  -0.00  -0.31    -0.03  -0.00  -0.00
     4   6     0.00  -0.00  -0.03    -0.00   0.00   0.15     0.02  -0.01   0.00
     5   6    -0.00   0.00   0.01     0.00  -0.00  -0.07    -0.06   0.03  -0.00
     6   6    -0.00   0.00  -0.02     0.00   0.00   0.08    -0.06  -0.03   0.00
     7   6    -0.00  -0.00  -0.00    -0.00   0.00   0.16     0.02   0.01   0.00
     8   6     0.00   0.00   0.00    -0.00   0.00  -0.05     0.06  -0.02  -0.00
     9   1    -0.00   0.00   0.03     0.00  -0.00  -0.02    -0.09   0.01  -0.00
    10   6    -0.00   0.00   0.01     0.00   0.00   0.03     0.04  -0.00   0.00
    11   6    -0.00  -0.00  -0.01    -0.00  -0.00  -0.04     0.04   0.01  -0.00
    12   1    -0.00   0.00   0.05    -0.00  -0.00  -0.07     0.09  -0.01   0.00
    13   1    -0.00  -0.00   0.12     0.00  -0.00  -0.14     0.06   0.00   0.00
    14   7     0.00  -0.00  -0.01    -0.00   0.00   0.02    -0.01  -0.05   0.00
    15   7     0.00  -0.00  -0.00    -0.00  -0.00   0.05     0.23   0.09   0.00
    16   1     0.00   0.00   0.06    -0.01  -0.00  -0.52     0.43   0.01  -0.02
    17   6     0.00   0.00  -0.00    -0.00   0.00   0.01     0.11  -0.01  -0.02
    18   6    -0.00   0.00   0.00     0.00   0.00  -0.03    -0.15  -0.13   0.01
    19   6    -0.00   0.00   0.00     0.00  -0.00   0.00    -0.16   0.08   0.01
    20   6    -0.00   0.00   0.00     0.00   0.00  -0.02    -0.11  -0.04   0.01
    21   1    -0.00   0.00  -0.01     0.00   0.00   0.17    -0.29  -0.04  -0.04
    22   6    -0.00  -0.00  -0.00     0.00  -0.00   0.01    -0.15   0.04   0.02
    23   1    -0.00   0.00   0.00     0.01   0.00  -0.05    -0.38  -0.03  -0.06
    24   6     0.00  -0.00   0.00     0.00  -0.00   0.01     0.04   0.01  -0.01
    25   1    -0.00   0.00  -0.01     0.00   0.00   0.15    -0.14  -0.05  -0.09
    26   1    -0.00  -0.00   0.00     0.00  -0.00  -0.07    -0.24   0.10  -0.11
    27   7     0.00  -0.00  -0.00    -0.00   0.00  -0.00     0.22  -0.02  -0.02
    28   1     0.00   0.00  -0.00    -0.01  -0.00   0.01     0.26  -0.04   0.08
    29   1     0.00   0.00   0.00    -0.00  -0.00  -0.01     0.31  -0.03   0.09
    30   8     0.00  -0.00  -0.02     0.00  -0.00  -0.10    -0.01   0.06  -0.00
    31   8     0.00  -0.00  -0.05     0.00  -0.00  -0.05    -0.02   0.01  -0.00
    32   1    -0.01   0.01   0.98    -0.00   0.00   0.52    -0.01  -0.02   0.00
    33  16     0.00  -0.00  -0.00    -0.00  -0.00  -0.00    -0.01   0.00  -0.00
    34   8     0.00   0.00  -0.00     0.00  -0.00   0.00     0.00  -0.00   0.01
    35   8    -0.00   0.00   0.00     0.00   0.00   0.00     0.00   0.01  -0.00
    36   8    -0.00  -0.00  -0.00    -0.00   0.00   0.00    -0.00  -0.01  -0.01
    37  16     0.00  -0.00   0.00    -0.00  -0.00  -0.00     0.01   0.02  -0.00
    38   8     0.00   0.00   0.00    -0.00  -0.00  -0.00     0.01  -0.01   0.01
    39   8    -0.00  -0.00  -0.00     0.00  -0.00   0.00    -0.02   0.01  -0.00
    40   8    -0.00  -0.00   0.00     0.00   0.00  -0.00     0.01  -0.01  -0.01
                     55                     56                     57
                      A                      A                      A
 Frequencies --    835.8811               863.7677               868.1698
 Red. masses --      1.3088                 1.7620                 1.4315
 Frc consts  --      0.5388                 0.7745                 0.6357
 IR Inten    --      0.2562               102.3285                22.2300
  Atom  AN      X      Y      Z        X      Y      Z        X      Y      Z
     1   6     0.00  -0.00   0.03    -0.00  -0.01   0.01     0.00   0.00   0.00
     2   6     0.00  -0.00  -0.03    -0.01  -0.00  -0.01    -0.00  -0.00  -0.01
     3   6    -0.00   0.00   0.02    -0.00   0.00   0.00    -0.00  -0.00   0.00
     4   6     0.00  -0.00  -0.01     0.00   0.00  -0.00    -0.00   0.00   0.01
     5   6    -0.00   0.00   0.01    -0.01   0.00   0.00    -0.00  -0.00   0.02
     6   6    -0.00  -0.00  -0.01    -0.01  -0.01  -0.00    -0.00  -0.00  -0.01
     7   6     0.00  -0.00  -0.01     0.00   0.00  -0.00    -0.00   0.00   0.08
     8   6     0.00  -0.00   0.00     0.01  -0.00  -0.00     0.00   0.00  -0.06
     9   1    -0.00   0.00  -0.01    -0.01   0.00  -0.01    -0.00  -0.00  -0.16
    10   6    -0.00   0.00  -0.00     0.01   0.00   0.00     0.00   0.00   0.06
    11   6    -0.00   0.00   0.00     0.00  -0.00   0.00     0.00  -0.00  -0.15
    12   1     0.00  -0.00   0.00     0.01  -0.00   0.00    -0.00   0.01   0.45
    13   1    -0.00   0.00   0.00     0.00   0.00  -0.00    -0.00  -0.01   0.84
    14   7     0.00  -0.00  -0.02     0.00  -0.00  -0.01     0.00   0.00  -0.00
    15   7     0.00   0.00   0.01     0.02   0.01  -0.02     0.00  -0.00   0.00
    16   1     0.00  -0.00  -0.13     0.04   0.00  -0.07     0.00  -0.00  -0.02
    17   6     0.00   0.00   0.02     0.00  -0.00   0.10    -0.00  -0.00  -0.00
    18   6    -0.00   0.00  -0.09    -0.01   0.00  -0.05     0.00   0.00   0.00
    19   6     0.00  -0.00   0.05    -0.01  -0.01  -0.08     0.00  -0.00  -0.00
    20   6    -0.00  -0.00  -0.09    -0.01   0.01  -0.08    -0.00   0.00   0.00
    21   1    -0.00  -0.00   0.54    -0.00   0.00   0.31     0.00   0.00  -0.00
    22   6    -0.00  -0.00   0.06    -0.01  -0.01  -0.12    -0.00  -0.00   0.00
    23   1     0.00   0.00  -0.37    -0.01  -0.01   0.51     0.00  -0.00  -0.00
    24   6     0.00  -0.00   0.02     0.01   0.00   0.15    -0.00   0.00  -0.00
    25   1     0.00  -0.00   0.59    -0.02   0.01   0.36    -0.00   0.00  -0.00
    26   1    -0.01   0.00  -0.43    -0.02  -0.01   0.66    -0.00  -0.00  -0.00
    27   7     0.00   0.00  -0.01     0.01  -0.00  -0.04    -0.00   0.00   0.00
    28   1    -0.01  -0.01   0.04    -0.01  -0.02  -0.01    -0.00   0.00  -0.00
    29   1     0.01  -0.01  -0.04    -0.01   0.02   0.01    -0.00   0.00  -0.00
    30   8    -0.00   0.00   0.01    -0.00   0.01   0.00     0.00  -0.00   0.00
    31   8    -0.00  -0.00   0.00    -0.00   0.00   0.00    -0.00   0.00  -0.01
    32   1     0.00   0.00  -0.02    -0.00  -0.00  -0.01     0.00   0.00  -0.15
    33  16     0.00  -0.00  -0.00    -0.00   0.00   0.00    -0.00  -0.00  -0.01
    34   8    -0.00   0.00  -0.00    -0.00  -0.00   0.00     0.01   0.00  -0.00
    35   8     0.00  -0.00  -0.00     0.00   0.00  -0.00    -0.00   0.00   0.00
    36   8    -0.00  -0.00  -0.00    -0.00  -0.00  -0.00    -0.00  -0.01  -0.00
    37  16     0.00   0.00   0.00     0.00   0.00   0.00     0.00   0.00   0.00
    38   8     0.00   0.00   0.00     0.00  -0.00   0.00     0.00   0.00   0.00
    39   8    -0.00   0.00  -0.00    -0.00   0.00  -0.00    -0.00  -0.00  -0.00
    40   8    -0.00  -0.00   0.00     0.00  -0.00  -0.00    -0.00  -0.00   0.00
                     58                     59                     60
                      A                      A                      A
 Frequencies --    878.4509               886.6129               893.7589
 Red. masses --      6.0547                 1.3117                 1.3113
 Frc consts  --      2.7528                 0.6075                 0.6171
 IR Inten    --      7.7378               145.1834                 0.7541
  Atom  AN      X      Y      Z        X      Y      Z        X      Y      Z
     1   6    -0.03   0.10   0.00     0.00  -0.00  -0.07    -0.00   0.00   0.03
     2   6     0.07   0.01  -0.00    -0.00   0.00   0.04     0.00  -0.00  -0.02
     3   6     0.04  -0.01   0.00    -0.00   0.00  -0.01    -0.00  -0.00  -0.00
     4   6    -0.01  -0.01  -0.00     0.00   0.00   0.01     0.00  -0.00  -0.01
     5   6     0.10  -0.04   0.00    -0.00   0.00  -0.03     0.00  -0.00  -0.09
     6   6     0.10   0.11  -0.00    -0.00  -0.00   0.02     0.00   0.00   0.03
     7   6    -0.01  -0.00   0.00    -0.00   0.00   0.01    -0.00   0.00   0.04
     8   6    -0.09  -0.00  -0.00     0.00   0.00   0.02    -0.00   0.00   0.09
     9   1     0.09  -0.04   0.00    -0.00   0.00   0.17    -0.01   0.00   0.64
    10   6    -0.09   0.00   0.00     0.00   0.00  -0.00    -0.00   0.00  -0.02
    11   6    -0.02   0.02  -0.01     0.00  -0.00  -0.02     0.00   0.00  -0.07
    12   1    -0.11  -0.01   0.00     0.00  -0.00  -0.11     0.00  -0.01  -0.61
    13   1    -0.00   0.00   0.03    -0.00  -0.00   0.10     0.00  -0.00   0.37
    14   7    -0.05   0.02  -0.00     0.00  -0.00   0.07    -0.00  -0.00  -0.02
    15   7    -0.19  -0.06  -0.00     0.00  -0.00  -0.10     0.00   0.00   0.02
    16   1    -0.34   0.00  -0.01     0.00   0.01   0.94     0.00  -0.00  -0.21
    17   6     0.01  -0.01   0.02     0.00   0.00   0.00     0.00   0.00   0.00
    18   6    -0.08  -0.22  -0.01    -0.00  -0.00  -0.00     0.00   0.00  -0.00
    19   6    -0.03   0.28  -0.01    -0.00   0.00   0.01    -0.00  -0.00  -0.00
    20   6     0.03  -0.27  -0.02    -0.00  -0.00  -0.03    -0.00   0.00   0.01
    21   1    -0.25  -0.12   0.07    -0.00  -0.00   0.05     0.00   0.00  -0.01
    22   6     0.09   0.28  -0.02    -0.00   0.00   0.00    -0.00  -0.00  -0.00
    23   1    -0.19   0.21   0.09    -0.00   0.00  -0.04     0.00  -0.00   0.01
    24   6    -0.01  -0.01   0.03     0.00  -0.00   0.02    -0.00   0.00  -0.00
    25   1     0.16  -0.22   0.06    -0.00  -0.00   0.17    -0.00   0.00  -0.03
    26   1     0.26   0.18   0.10    -0.00   0.00  -0.05    -0.00  -0.00   0.01
    27   7     0.14  -0.01  -0.01     0.00   0.00  -0.00    -0.00  -0.00   0.00
    28   1     0.20  -0.00   0.02    -0.00  -0.00   0.01    -0.00   0.00  -0.00
    29   1     0.15  -0.00   0.02     0.00  -0.00  -0.01    -0.00   0.00   0.00
    30   8     0.00  -0.07   0.00    -0.00   0.00  -0.02    -0.00  -0.00   0.01
    31   8     0.02  -0.02  -0.00    -0.00  -0.00  -0.00     0.00  -0.00  -0.01
    32   1     0.02   0.02  -0.01    -0.00   0.00  -0.01     0.00   0.00  -0.05
    33  16     0.02  -0.00  -0.00    -0.00  -0.00   0.00     0.00  -0.00   0.00
    34   8     0.00   0.01  -0.02    -0.00  -0.00   0.00    -0.00  -0.00   0.00
    35   8     0.00  -0.02   0.00     0.00   0.00  -0.00    -0.00   0.00  -0.00
    36   8     0.00   0.01   0.02     0.00  -0.00  -0.00     0.00   0.00   0.00
    37  16    -0.01  -0.02  -0.00     0.00   0.00  -0.00    -0.00  -0.00  -0.00
    38   8    -0.02   0.01  -0.04    -0.00  -0.00  -0.00    -0.01  -0.00  -0.00
    39   8     0.03  -0.02   0.00    -0.00   0.00   0.00     0.00  -0.00   0.00
    40   8    -0.02   0.01   0.04     0.00   0.00  -0.00     0.01   0.00  -0.00
                     61                     62                     63
                      A                      A                      A
 Frequencies --    909.2122               928.8998               932.0428
 Red. masses --      8.4023                 1.4846                 7.1916
 Frc consts  --      4.0924                 0.7548                 3.6808
 IR Inten    --     24.0166                27.2880                69.2512
  Atom  AN      X      Y      Z        X      Y      Z        X      Y      Z
     1   6     0.07  -0.06   0.00     0.00  -0.00   0.02    -0.03   0.20  -0.00
     2   6    -0.04   0.02  -0.00    -0.00   0.00  -0.03     0.02  -0.06  -0.00
     3   6    -0.07   0.04   0.00     0.00   0.00   0.02    -0.05  -0.06   0.00
     4   6    -0.00   0.06  -0.00    -0.00   0.00   0.08    -0.07  -0.05   0.01
     5   6    -0.16  -0.08  -0.00    -0.00   0.00  -0.13     0.07  -0.15  -0.01
     6   6    -0.17  -0.23   0.00    -0.00  -0.01   0.04     0.11   0.36   0.00
     7   6    -0.03  -0.02  -0.00     0.00   0.00  -0.03     0.01  -0.02  -0.01
     8   6     0.13   0.21   0.00     0.00  -0.00  -0.12    -0.10   0.24  -0.01
     9   1    -0.12  -0.06   0.02     0.00   0.01   0.72    -0.26  -0.31   0.05
    10   6     0.41  -0.03  -0.00    -0.00   0.00   0.02     0.22  -0.06  -0.00
    11   6     0.01  -0.24   0.00    -0.00   0.00   0.04     0.07  -0.17   0.01
    12   1     0.01   0.15  -0.02     0.00   0.00   0.64    -0.29   0.15   0.06
    13   1    -0.12  -0.15  -0.01    -0.00   0.00  -0.18     0.09  -0.18  -0.03
    14   7     0.15   0.08  -0.00     0.00   0.00  -0.00    -0.08  -0.05   0.00
    15   7    -0.14  -0.10   0.00    -0.00  -0.00   0.00     0.10   0.02  -0.00
    16   1    -0.46   0.05  -0.02    -0.01   0.00  -0.03     0.34  -0.09   0.01
    17   6    -0.05  -0.02  -0.00    -0.00  -0.00   0.00     0.05   0.01   0.00
    18   6    -0.01  -0.03   0.00     0.00  -0.00  -0.00    -0.00   0.01  -0.00
    19   6     0.02   0.12   0.00     0.00   0.00  -0.00    -0.01  -0.06  -0.00
    20   6     0.02  -0.09  -0.00     0.00  -0.00   0.00    -0.03   0.06  -0.00
    21   1    -0.05  -0.01   0.00     0.00  -0.00   0.00    -0.01   0.02   0.01
    22   6     0.07   0.12   0.00     0.00   0.00  -0.00    -0.05  -0.07  -0.00
    23   1     0.04   0.14  -0.01     0.00   0.00   0.00    -0.06  -0.09   0.01
    24   6    -0.01  -0.02  -0.00     0.00  -0.00  -0.00    -0.00   0.01   0.00
    25   1     0.04  -0.09  -0.00     0.00  -0.00  -0.00    -0.03   0.05   0.00
    26   1     0.18   0.06  -0.01     0.00   0.00   0.00    -0.10  -0.04   0.01
    27   7     0.02  -0.00   0.00     0.00  -0.00   0.00    -0.00   0.00  -0.01
    28   1     0.06   0.02  -0.01     0.00   0.00  -0.00    -0.02  -0.01   0.02
    29   1    -0.01   0.01  -0.02    -0.00   0.00  -0.00     0.03  -0.00   0.03
    30   8     0.03   0.03   0.00    -0.00   0.00   0.01     0.03  -0.11   0.00
    31   8    -0.07   0.09  -0.00     0.00  -0.00   0.01    -0.07   0.13  -0.00
    32   1    -0.07  -0.02  -0.00     0.00  -0.00   0.01    -0.06   0.02   0.00
    33  16    -0.05   0.00   0.00     0.00   0.00  -0.00    -0.01   0.00  -0.00
    34   8    -0.03  -0.05   0.12     0.00   0.00  -0.00    -0.02  -0.03   0.07
    35   8    -0.01   0.13  -0.02     0.00  -0.00   0.00    -0.02   0.10  -0.01
    36   8    -0.03  -0.08  -0.11    -0.00  -0.00   0.00    -0.02  -0.05  -0.06
    37  16     0.02   0.03  -0.00     0.00   0.00  -0.00    -0.01  -0.02  -0.00
    38   8     0.04  -0.01   0.07    -0.00  -0.00  -0.00    -0.06   0.02  -0.09
    39   8    -0.06   0.05  -0.00    -0.00   0.00   0.00     0.10  -0.10   0.00
    40   8     0.04  -0.01  -0.07     0.01   0.00  -0.00    -0.06   0.02   0.09
                     64                     65                     66
                      A                      A                      A
 Frequencies --    972.4887              1000.0596              1016.1329
 Red. masses --      1.3444                 1.3291                10.0303
 Frc consts  --      0.7491                 0.7832                 6.1019
 IR Inten    --      2.5554                 0.1666               232.7991
  Atom  AN      X      Y      Z        X      Y      Z        X      Y      Z
     1   6     0.00  -0.00  -0.00    -0.00   0.00   0.00    -0.05   0.07  -0.00
     2   6    -0.00  -0.00   0.00     0.00   0.00  -0.00     0.30   0.13  -0.00
     3   6    -0.00   0.00  -0.00     0.00   0.00   0.00     0.26   0.07   0.00
     4   6     0.00   0.00   0.00     0.00   0.00  -0.00     0.01  -0.02  -0.00
     5   6    -0.00   0.00   0.00    -0.00  -0.00   0.00     0.07  -0.05   0.00
     6   6    -0.00  -0.00   0.00    -0.00  -0.00   0.00     0.01  -0.02   0.00
     7   6     0.00   0.00   0.00    -0.00   0.00   0.00    -0.01   0.01  -0.00
     8   6     0.00  -0.00   0.00    -0.00   0.00   0.00    -0.09   0.09  -0.00
     9   1     0.00   0.00  -0.00     0.00   0.00  -0.00     0.23   0.02  -0.00
    10   6    -0.00   0.00   0.00    -0.00   0.00  -0.00    -0.05   0.02   0.00
    11   6    -0.00   0.00  -0.00    -0.00  -0.00  -0.00    -0.18  -0.10  -0.00
    12   1     0.00  -0.00  -0.00    -0.00   0.00  -0.00    -0.12   0.08   0.00
    13   1    -0.00   0.00   0.00    -0.00  -0.00   0.00    -0.31  -0.02   0.00
    14   7     0.00   0.00   0.00    -0.00  -0.00  -0.00    -0.22  -0.12   0.00
    15   7    -0.00  -0.00  -0.02    -0.00  -0.00  -0.00     0.02   0.11  -0.00
    16   1    -0.00   0.00   0.09    -0.00  -0.00  -0.04     0.35  -0.07   0.00
    17   6     0.00  -0.00   0.04    -0.00   0.00   0.02     0.03   0.04   0.00
    18   6     0.00   0.00  -0.12    -0.00   0.00   0.05    -0.00  -0.03  -0.00
    19   6     0.00  -0.00  -0.05     0.00  -0.00  -0.12    -0.00  -0.05   0.00
    20   6     0.00  -0.00   0.10     0.00  -0.00  -0.05     0.01  -0.01   0.00
    21   1     0.01  -0.00   0.68    -0.01   0.01  -0.28    -0.01  -0.03   0.00
    22   6     0.00   0.00   0.04     0.00   0.00   0.10    -0.03  -0.04  -0.00
    23   1     0.00  -0.00   0.34     0.01  -0.00   0.71    -0.04  -0.07  -0.01
    24   6    -0.00   0.00  -0.02    -0.00   0.00  -0.00     0.01   0.02  -0.00
    25   1    -0.01  -0.00  -0.58     0.00  -0.00   0.28     0.05   0.01  -0.01
    26   1    -0.00   0.00  -0.23    -0.01   0.01  -0.56    -0.10   0.01   0.01
    27   7    -0.00  -0.00   0.01    -0.00   0.00   0.00     0.00   0.01   0.00
    28   1     0.00   0.00  -0.00    -0.01  -0.00   0.00    -0.09  -0.02  -0.02
    29   1    -0.00  -0.00   0.00     0.01  -0.01  -0.00     0.08  -0.04   0.00
    30   8     0.00   0.00  -0.00    -0.00  -0.00   0.00    -0.08  -0.01  -0.00
    31   8     0.00  -0.00   0.00     0.00  -0.00  -0.00     0.02  -0.07   0.00
    32   1     0.00  -0.00  -0.00     0.00   0.00  -0.00     0.02   0.07  -0.00
    33  16    -0.00   0.00  -0.00     0.00  -0.00   0.00     0.10  -0.00  -0.00
    34   8     0.00   0.00  -0.00    -0.00  -0.00   0.00    -0.06  -0.06   0.15
    35   8     0.00  -0.00   0.00    -0.00   0.00   0.00    -0.03   0.15  -0.02
    36   8     0.00   0.00   0.00    -0.00  -0.00  -0.00    -0.06  -0.09  -0.13
    37  16     0.00   0.00  -0.00    -0.00  -0.00  -0.00    -0.06  -0.11   0.00
    38   8     0.00  -0.00  -0.00     0.00  -0.00  -0.00     0.14   0.01   0.21
    39   8    -0.00   0.00   0.00    -0.00   0.00   0.00    -0.17   0.20  -0.00
    40   8    -0.00   0.00  -0.00    -0.00   0.00  -0.00     0.14   0.01  -0.21
                     67                     68                     69
                      A                      A                      A
 Frequencies --   1020.0461              1033.0652              1033.9589
 Red. masses --     13.9178                 3.2565                 5.5468
 Frc consts  --      8.5322                 2.0476                 3.4938
 IR Inten    --   1301.3452                39.1210               131.1464
  Atom  AN      X      Y      Z        X      Y      Z        X      Y      Z
     1   6    -0.03  -0.12   0.00     0.01   0.01   0.00     0.03   0.02   0.00
     2   6     0.08   0.07  -0.00    -0.08  -0.04  -0.00    -0.16  -0.09   0.00
     3   6     0.09   0.08   0.00    -0.08  -0.05  -0.00    -0.17  -0.12  -0.00
     4   6     0.02   0.02   0.00    -0.01  -0.02   0.00    -0.02  -0.04   0.00
     5   6    -0.04   0.04  -0.00     0.02   0.04  -0.00     0.03   0.08  -0.00
     6   6    -0.04  -0.16   0.00     0.03   0.05  -0.00     0.06   0.12  -0.00
     7   6    -0.02   0.04   0.00     0.00  -0.01   0.00     0.01  -0.03   0.00
     8   6    -0.00  -0.16  -0.00    -0.01  -0.06  -0.00    -0.02  -0.12  -0.00
     9   1     0.12   0.12   0.00    -0.02   0.02  -0.00    -0.05   0.05  -0.00
    10   6    -0.10   0.05   0.00    -0.02  -0.01   0.00    -0.03  -0.02   0.00
    11   6    -0.08   0.12  -0.00     0.06   0.08  -0.00     0.13   0.17  -0.00
    12   1     0.01  -0.17   0.01    -0.05  -0.08   0.00    -0.09  -0.16   0.00
    13   1    -0.23   0.23   0.01     0.09   0.07  -0.00     0.19   0.14  -0.00
    14   7    -0.00  -0.02  -0.00     0.05   0.03  -0.00     0.09   0.05  -0.00
    15   7    -0.01   0.03   0.00    -0.02  -0.03   0.00     0.01  -0.04   0.00
    16   1    -0.04   0.04  -0.00    -0.12   0.02  -0.00    -0.07   0.01   0.00
    17   6    -0.01   0.00  -0.00     0.01  -0.01   0.00    -0.03  -0.01  -0.00
    18   6     0.00   0.01  -0.00    -0.03  -0.17  -0.00     0.03   0.16   0.00
    19   6     0.00  -0.01   0.00    -0.00   0.20  -0.00     0.00  -0.14   0.00
    20   6     0.01  -0.01   0.00    -0.01   0.18   0.00     0.00  -0.14  -0.00
    21   1     0.00   0.01   0.00     0.24  -0.36  -0.00    -0.20   0.32  -0.00
    22   6     0.00   0.01  -0.00    -0.02  -0.16   0.00     0.03   0.16  -0.00
    23   1    -0.01  -0.02  -0.00     0.30   0.35   0.02    -0.24  -0.26  -0.01
    24   6     0.01  -0.00  -0.00     0.00  -0.01   0.00    -0.01  -0.01  -0.00
    25   1    -0.02  -0.02  -0.00     0.27   0.31  -0.00    -0.27  -0.27   0.01
    26   1    -0.03   0.03   0.00     0.26  -0.35  -0.02    -0.17   0.30   0.02
    27   7    -0.00   0.00   0.00    -0.01  -0.00  -0.01     0.01  -0.01   0.00
    28   1    -0.01   0.00  -0.02     0.02   0.00   0.03     0.05   0.02  -0.01
    29   1    -0.01  -0.00  -0.02    -0.02   0.02   0.02    -0.04   0.01  -0.03
    30   8    -0.03   0.05  -0.00     0.02  -0.01   0.00     0.04  -0.01   0.00
    31   8     0.05  -0.10   0.00    -0.00   0.02  -0.00    -0.01   0.06  -0.00
    32   1     0.04   0.04   0.00    -0.00   0.00   0.00    -0.00   0.00   0.00
    33  16     0.19  -0.01  -0.00     0.04  -0.00  -0.00     0.07  -0.00  -0.00
    34   8    -0.12  -0.12   0.31    -0.02  -0.02   0.06    -0.04  -0.04   0.10
    35   8    -0.08   0.31  -0.04    -0.02   0.06  -0.01    -0.04   0.12  -0.01
    36   8    -0.13  -0.19  -0.26    -0.02  -0.03  -0.05    -0.04  -0.06  -0.08
    37  16     0.09   0.15  -0.00    -0.02  -0.03   0.00    -0.04  -0.07   0.00
    38   8    -0.17  -0.01  -0.25     0.03   0.00   0.04     0.06   0.00   0.08
    39   8     0.19  -0.21   0.00    -0.03   0.04  -0.00    -0.07   0.08  -0.00
    40   8    -0.17  -0.01   0.25     0.03   0.00  -0.04     0.06   0.00  -0.08
                     70                     71                     72
                      A                      A                      A
 Frequencies --   1090.5972              1125.5921              1131.4102
 Red. masses --      1.4202                 2.0412                 3.3996
 Frc consts  --      0.9953                 1.5237                 2.5640
 IR Inten    --      6.9717                84.0881                99.0737
  Atom  AN      X      Y      Z        X      Y      Z        X      Y      Z
     1   6    -0.01   0.00  -0.00     0.01  -0.04   0.00    -0.04   0.02   0.00
     2   6     0.01   0.00  -0.00    -0.02  -0.01   0.00    -0.09  -0.04  -0.00
     3   6     0.01   0.01   0.00     0.03  -0.11   0.00    -0.08   0.22  -0.00
     4   6     0.00   0.00   0.00     0.02  -0.08   0.00     0.05   0.10   0.00
     5   6     0.00  -0.01   0.00     0.00   0.10  -0.00    -0.02  -0.16   0.00
     6   6     0.00   0.00  -0.00     0.00  -0.02   0.00     0.01   0.08  -0.00
     7   6     0.00   0.01  -0.00     0.01  -0.02  -0.00    -0.00   0.13  -0.00
     8   6    -0.00   0.01  -0.00    -0.03   0.14  -0.00     0.08  -0.00   0.00
     9   1     0.00  -0.01   0.00     0.09   0.15  -0.00    -0.45  -0.37  -0.00
    10   6    -0.01   0.00  -0.00    -0.15   0.02  -0.00    -0.12   0.05  -0.00
    11   6    -0.01  -0.01   0.00     0.01  -0.10   0.00    -0.05  -0.07   0.00
    12   1     0.01   0.01  -0.00     0.44   0.36  -0.00     0.40   0.14  -0.00
    13   1     0.01  -0.02  -0.00     0.55  -0.50  -0.00     0.32  -0.34  -0.00
    14   7    -0.01   0.00  -0.00     0.02   0.01  -0.00     0.05   0.01  -0.00
    15   7     0.01   0.01   0.00    -0.00  -0.01   0.00     0.01  -0.02   0.00
    16   1     0.00   0.01  -0.00    -0.03   0.01  -0.00    -0.10   0.03  -0.00
    17   6     0.01  -0.04  -0.00    -0.01  -0.00   0.00     0.02  -0.01  -0.00
    18   6     0.04   0.03   0.00    -0.00   0.00   0.00     0.00   0.01   0.00
    19   6    -0.03   0.03  -0.00     0.00   0.00   0.00     0.01   0.00   0.00
    20   6    -0.01   0.08  -0.00     0.00  -0.00   0.00    -0.01   0.00   0.00
    21   1     0.24  -0.10  -0.00    -0.00   0.00   0.00    -0.03   0.03   0.00
    22   6     0.01   0.07   0.00     0.00   0.00  -0.00    -0.01  -0.01  -0.00
    23   1    -0.28  -0.09   0.01     0.02   0.01  -0.00     0.02   0.01  -0.00
    24   6    -0.01  -0.09  -0.00    -0.00   0.00   0.00     0.01   0.00  -0.00
    25   1    -0.06   0.07   0.01    -0.00  -0.01  -0.00    -0.06  -0.02  -0.00
    26   1     0.03   0.06  -0.02     0.01  -0.00   0.00    -0.02   0.00   0.00
    27   7    -0.01  -0.09   0.00    -0.00   0.00  -0.00     0.00   0.01   0.00
    28   1     0.60   0.14   0.11    -0.02  -0.00  -0.00    -0.05  -0.01  -0.02
    29   1    -0.58   0.23  -0.11     0.02  -0.01   0.00     0.04  -0.02   0.00
    30   8    -0.00  -0.00   0.00    -0.02   0.04  -0.00     0.04  -0.05   0.00
    31   8     0.00  -0.01   0.00    -0.01   0.04  -0.00     0.05  -0.12   0.00
    32   1     0.00  -0.00   0.00    -0.01  -0.01   0.00     0.04  -0.22   0.00
    33  16     0.00   0.00  -0.00     0.03  -0.00  -0.00     0.03   0.02  -0.00
    34   8    -0.00  -0.00   0.00    -0.01  -0.01   0.02    -0.02  -0.01   0.03
    35   8     0.00  -0.00   0.00    -0.00   0.01  -0.00     0.00  -0.02   0.00
    36   8    -0.00  -0.00  -0.00    -0.00  -0.01  -0.01    -0.02  -0.02  -0.03
    37  16     0.00  -0.00  -0.00     0.02  -0.00   0.00    -0.04   0.00  -0.00
    38   8     0.00  -0.00   0.00    -0.01  -0.00  -0.02     0.03   0.00   0.04
    39   8    -0.00   0.00   0.00    -0.01   0.01  -0.00     0.03  -0.03   0.00
    40   8     0.00  -0.00  -0.00    -0.01  -0.00   0.02     0.03   0.00  -0.04
                     73                     74                     75
                      A                      A                      A
 Frequencies --   1156.3296              1157.1289              1161.3963
 Red. masses --     20.1478                 1.2863                 9.1374
 Frc consts  --     15.8723                 1.0148                 7.2616
 IR Inten    --    606.8965                47.5641               388.7052
  Atom  AN      X      Y      Z        X      Y      Z        X      Y      Z
     1   6    -0.00  -0.01   0.00     0.01  -0.01   0.00    -0.02   0.06  -0.00
     2   6    -0.01  -0.00   0.00     0.00   0.00   0.00    -0.03  -0.01  -0.00
     3   6     0.00   0.00  -0.00     0.00  -0.01   0.00    -0.04   0.10  -0.00
     4   6     0.01  -0.00   0.00     0.00  -0.00   0.00    -0.02   0.03  -0.00
     5   6    -0.00   0.00  -0.00    -0.00   0.01  -0.00    -0.02  -0.09   0.00
     6   6     0.00   0.00   0.00     0.00  -0.00  -0.00    -0.01   0.05   0.00
     7   6    -0.00   0.01   0.01    -0.00  -0.01  -0.00     0.00   0.05  -0.00
     8   6    -0.00   0.01   0.00    -0.00   0.00  -0.00     0.04  -0.03   0.00
     9   1    -0.02  -0.01   0.00    -0.03  -0.00  -0.00    -0.00  -0.09   0.00
    10   6    -0.02   0.01  -0.01    -0.00   0.00   0.00     0.01   0.01   0.00
    11   6    -0.00  -0.01  -0.01     0.00  -0.00   0.00    -0.02  -0.00  -0.00
    12   1     0.03   0.03  -0.02    -0.01   0.00   0.00     0.13   0.00  -0.00
    13   1     0.06  -0.05   0.00     0.02  -0.01  -0.00    -0.05   0.02   0.00
    14   7     0.00   0.00   0.00     0.00  -0.01   0.00     0.02   0.00   0.00
    15   7     0.00  -0.00  -0.00     0.00   0.00  -0.00     0.01  -0.03   0.00
    16   1    -0.01   0.00   0.00     0.01  -0.00   0.00    -0.02  -0.01   0.00
    17   6    -0.00  -0.00   0.00    -0.02   0.01   0.00     0.02   0.00  -0.00
    18   6    -0.00   0.00  -0.00    -0.06  -0.01  -0.00    -0.04  -0.00  -0.00
    19   6     0.00   0.00  -0.00     0.05  -0.02   0.00     0.04  -0.01   0.00
    20   6     0.00  -0.00   0.00     0.07  -0.01   0.00     0.04   0.00   0.00
    21   1    -0.00   0.00   0.00    -0.34   0.17   0.01    -0.33   0.19   0.00
    22   6    -0.00   0.00  -0.00    -0.06   0.01  -0.00    -0.05  -0.00  -0.00
    23   1     0.01   0.01   0.00     0.43   0.16  -0.01     0.27   0.09  -0.00
    24   6     0.00  -0.00  -0.00     0.00  -0.01  -0.00     0.00  -0.00  -0.00
    25   1     0.00   0.00  -0.00     0.48   0.18  -0.01     0.35   0.15  -0.01
    26   1    -0.01   0.01   0.00    -0.44   0.26   0.01    -0.31   0.17   0.01
    27   7    -0.00  -0.00   0.00    -0.00  -0.04   0.00    -0.00  -0.03  -0.00
    28   1     0.00   0.00  -0.00     0.21   0.04   0.04     0.13   0.02   0.02
    29   1    -0.00   0.00  -0.00    -0.21   0.07  -0.04    -0.12   0.04  -0.02
    30   8    -0.00   0.00  -0.00    -0.00   0.00  -0.00     0.02  -0.04   0.00
    31   8     0.00  -0.00  -0.00    -0.00   0.00  -0.00     0.02  -0.04   0.00
    32   1     0.00  -0.01  -0.00    -0.00   0.01  -0.00     0.01  -0.09   0.00
    33  16     0.01  -0.00   0.52    -0.00  -0.00  -0.00     0.00   0.05   0.00
    34   8     0.18   0.22  -0.56     0.00   0.00  -0.00    -0.01  -0.01   0.02
    35   8    -0.02   0.09  -0.03    -0.00   0.00  -0.00     0.01  -0.06   0.01
    36   8    -0.18  -0.30  -0.43     0.00   0.00   0.00    -0.01  -0.02  -0.03
    37  16    -0.00   0.00  -0.00    -0.03   0.02   0.00     0.28  -0.17  -0.01
    38   8     0.00  -0.00   0.01     0.01  -0.00   0.02    -0.12   0.01  -0.16
    39   8     0.00  -0.00   0.00     0.03  -0.03   0.00    -0.30   0.31  -0.00
    40   8    -0.00  -0.00   0.00     0.01  -0.00  -0.02    -0.13   0.01   0.17
                     76                     77                     78
                      A                      A                      A
 Frequencies --   1163.8967              1170.0032              1190.4784
 Red. masses --     20.3606                15.3355                 1.4609
 Frc consts  --     16.2506                12.3687                 1.2199
 IR Inten    --    625.8715               570.7897              1546.9571
  Atom  AN      X      Y      Z        X      Y      Z        X      Y      Z
     1   6    -0.00   0.00  -0.00     0.03   0.02  -0.00     0.04   0.05  -0.00
     2   6    -0.00  -0.00   0.00     0.02  -0.01   0.00     0.01  -0.04   0.00
     3   6    -0.00   0.00  -0.00    -0.01  -0.06   0.00    -0.05   0.00  -0.00
     4   6    -0.00   0.00   0.01    -0.09  -0.03  -0.00    -0.09   0.01  -0.00
     5   6    -0.00  -0.00   0.01     0.02   0.05  -0.00     0.01  -0.02   0.00
     6   6    -0.00   0.00  -0.02    -0.00  -0.01   0.00    -0.03  -0.01  -0.00
     7   6     0.00   0.00   0.00     0.05  -0.05   0.00     0.06   0.02   0.00
     8   6     0.00  -0.00  -0.00    -0.02  -0.02   0.00     0.06  -0.01   0.00
     9   1     0.00  -0.00  -0.05     0.30   0.19   0.00     0.32   0.14   0.00
    10   6     0.00   0.00  -0.00     0.04  -0.04   0.00    -0.01  -0.04   0.00
    11   6    -0.00  -0.00   0.00     0.03   0.00  -0.00    -0.03   0.01  -0.00
    12   1     0.01   0.00   0.00     0.18   0.08  -0.01     0.35   0.12  -0.00
    13   1    -0.00   0.00  -0.00    -0.20   0.17   0.01    -0.13   0.07   0.00
    14   7     0.00   0.00  -0.01    -0.03   0.00   0.00    -0.04   0.03   0.00
    15   7     0.00  -0.00   0.00    -0.00   0.00  -0.00    -0.02  -0.03  -0.00
    16   1     0.00  -0.00   0.01     0.08  -0.03   0.00     0.06  -0.06   0.00
    17   6     0.00  -0.00  -0.00    -0.01   0.01   0.00     0.03   0.00  -0.00
    18   6    -0.00   0.00   0.00     0.00  -0.00  -0.00    -0.02   0.02  -0.00
    19   6     0.00  -0.00  -0.00    -0.01  -0.00  -0.00    -0.02  -0.02  -0.00
    20   6    -0.00   0.00  -0.00     0.00  -0.00  -0.00     0.03   0.02  -0.00
    21   1    -0.00   0.00   0.00     0.01  -0.01   0.00    -0.35   0.24   0.00
    22   6    -0.00  -0.00  -0.00     0.01   0.00   0.00     0.02  -0.03   0.00
    23   1     0.00   0.00  -0.00    -0.04  -0.02   0.00    -0.35  -0.18   0.00
    24   6    -0.00   0.00   0.00    -0.01   0.00   0.00    -0.04   0.01   0.00
    25   1     0.00   0.00   0.00     0.04   0.02  -0.00     0.38   0.19  -0.00
    26   1    -0.00   0.00   0.00     0.05  -0.03  -0.00     0.29  -0.21  -0.01
    27   7     0.00  -0.00  -0.00     0.00  -0.00  -0.00     0.01  -0.00  -0.01
    28   1     0.00   0.00   0.00     0.02   0.00   0.01     0.06   0.00   0.03
    29   1    -0.00   0.00   0.00    -0.00   0.00   0.01     0.02   0.00   0.02
    30   8     0.00  -0.00  -0.00    -0.01   0.01  -0.00     0.00  -0.00  -0.00
    31   8     0.00  -0.00   0.00    -0.02   0.06  -0.00     0.01   0.01  -0.00
    32   1     0.00  -0.00   0.00    -0.02  -0.03  -0.00     0.01  -0.16   0.00
    33  16     0.00   0.00   0.00     0.02   0.45   0.00     0.00  -0.01   0.00
    34   8     0.00   0.00  -0.00    -0.06  -0.09   0.18     0.00   0.00  -0.00
    35   8     0.00  -0.00   0.00     0.11  -0.57   0.07    -0.01   0.02  -0.00
    36   8    -0.00  -0.00  -0.01    -0.10  -0.20  -0.25     0.00   0.00   0.01
    37  16     0.01  -0.00   0.52    -0.05   0.03  -0.00    -0.01   0.01  -0.00
    38   8    -0.33   0.01  -0.51     0.02  -0.00   0.03     0.00  -0.00   0.00
    39   8    -0.01   0.01  -0.02     0.05  -0.06   0.00     0.01  -0.01   0.00
    40   8     0.32  -0.01  -0.50     0.02  -0.00  -0.03     0.00  -0.00  -0.00
                     79                     80                     81
                      A                      A                      A
 Frequencies --   1198.2579              1226.0276              1244.6490
 Red. masses --      1.5478                 2.1418                 2.0932
 Frc consts  --      1.3094                 1.8969                 1.9106
 IR Inten    --    558.2054               584.1884                67.7316
  Atom  AN      X      Y      Z        X      Y      Z        X      Y      Z
     1   6     0.06   0.03  -0.00    -0.09   0.16  -0.00     0.08   0.06  -0.00
     2   6     0.02  -0.04   0.00     0.01   0.06  -0.00     0.07   0.01   0.00
     3   6    -0.05   0.01  -0.00    -0.04   0.00  -0.00    -0.10   0.01  -0.00
     4   6    -0.10  -0.00  -0.00    -0.00   0.03  -0.00     0.02   0.03  -0.00
     5   6     0.01  -0.01   0.00     0.01  -0.05   0.00    -0.01  -0.02  -0.00
     6   6    -0.02   0.02  -0.00    -0.06  -0.06  -0.00    -0.04  -0.03   0.00
     7   6     0.07   0.02   0.00    -0.07  -0.04  -0.00    -0.12  -0.00  -0.00
     8   6     0.06  -0.01   0.00     0.02  -0.04   0.00     0.03  -0.03   0.00
     9   1     0.23   0.10   0.00     0.66   0.25   0.00     0.10   0.03   0.00
    10   6    -0.00  -0.05   0.00     0.01   0.02   0.00     0.03   0.05  -0.00
    11   6    -0.03   0.00  -0.00     0.05   0.02   0.00     0.05   0.04   0.00
    12   1     0.39   0.14  -0.00     0.11   0.00  -0.00    -0.19  -0.14   0.00
    13   1    -0.17   0.10   0.00     0.26  -0.12  -0.00     0.55  -0.31  -0.00
    14   7    -0.04   0.00   0.00     0.01  -0.00   0.00    -0.04  -0.05   0.00
    15   7     0.03   0.00  -0.00    -0.02  -0.03   0.00     0.03   0.04  -0.00
    16   1     0.24  -0.09   0.00    -0.16   0.02  -0.00     0.37  -0.13   0.00
    17   6    -0.09   0.02   0.00     0.15  -0.03  -0.00    -0.15   0.07   0.00
    18   6     0.02  -0.03  -0.00     0.02  -0.00  -0.00    -0.02  -0.01   0.00
    19   6     0.01   0.01   0.00     0.04   0.02   0.00    -0.04  -0.03   0.00
    20   6    -0.02  -0.04  -0.00    -0.04   0.03   0.00     0.03  -0.04  -0.00
    21   1     0.41  -0.30  -0.01    -0.04   0.05  -0.00     0.14  -0.13  -0.00
    22   6    -0.00   0.04  -0.00    -0.05  -0.02  -0.00     0.05   0.01   0.00
    23   1     0.37   0.18  -0.00     0.08   0.03  -0.00    -0.08  -0.04   0.00
    24   6     0.00   0.01  -0.00     0.02  -0.01  -0.00    -0.01   0.01   0.00
    25   1    -0.24  -0.15   0.00    -0.31  -0.09   0.00     0.30   0.08  -0.00
    26   1    -0.22   0.19   0.01    -0.30   0.14   0.01     0.21  -0.09  -0.01
    27   7    -0.00  -0.00   0.00    -0.00   0.00   0.00     0.00  -0.01  -0.00
    28   1     0.01   0.00   0.00    -0.04  -0.01  -0.01     0.05   0.01   0.01
    29   1    -0.03   0.01  -0.01    -0.00   0.00  -0.00    -0.02   0.01  -0.01
    30   8     0.00   0.00  -0.00     0.02  -0.07   0.00     0.01  -0.02   0.00
    31   8     0.01   0.00  -0.00    -0.01  -0.01   0.00     0.01  -0.04   0.00
    32   1     0.01  -0.16   0.00    -0.01   0.23  -0.00    -0.01   0.29  -0.00
    33  16     0.00  -0.01   0.00    -0.00  -0.00   0.00    -0.00   0.00   0.00
    34   8     0.00   0.00  -0.00     0.00   0.00  -0.00    -0.00  -0.00   0.00
    35   8    -0.01   0.02  -0.00     0.00   0.00  -0.00     0.00  -0.01   0.00
    36   8     0.00   0.00   0.01    -0.00   0.00   0.00    -0.00  -0.00  -0.00
    37  16     0.00   0.00  -0.00    -0.01   0.01  -0.00     0.01   0.00   0.00
    38   8    -0.00   0.00   0.00     0.00   0.00   0.00    -0.00   0.00  -0.00
    39   8     0.00  -0.01   0.00     0.01  -0.01   0.00    -0.00  -0.00  -0.00
    40   8    -0.00   0.00   0.00     0.00   0.00  -0.00    -0.00   0.00   0.00
                     82                     83                     84
                      A                      A                      A
 Frequencies --   1275.7590              1315.9543              1325.0459
 Red. masses --      2.5013                 4.1486                 3.4689
 Frc consts  --      2.3986                 4.2328                 3.5884
 IR Inten    --   1812.4551               349.3098               253.3556
  Atom  AN      X      Y      Z        X      Y      Z        X      Y      Z
     1   6    -0.03  -0.09   0.00     0.13  -0.15   0.00     0.01   0.03  -0.00
     2   6     0.06   0.14  -0.00     0.22   0.01   0.00    -0.03  -0.03   0.00
     3   6    -0.06   0.09  -0.00    -0.17  -0.04  -0.00     0.01  -0.05   0.00
     4   6    -0.07  -0.04  -0.00    -0.14  -0.07  -0.00    -0.00   0.01  -0.00
     5   6    -0.01   0.04  -0.00     0.04   0.08  -0.00    -0.01  -0.01  -0.00
     6   6     0.06   0.04   0.00     0.04   0.03   0.00    -0.01   0.01  -0.00
     7   6    -0.04  -0.09   0.00    -0.05   0.11  -0.00     0.04   0.05   0.00
     8   6    -0.03  -0.06   0.00     0.08  -0.00   0.00     0.03   0.02   0.00
     9   1    -0.16  -0.03  -0.00    -0.42  -0.13  -0.00     0.13   0.05   0.00
    10   6     0.03  -0.01   0.00     0.10  -0.03   0.00    -0.00  -0.01  -0.00
    11   6     0.10  -0.02   0.00    -0.06   0.08   0.00    -0.05   0.01  -0.00
    12   1     0.69   0.27  -0.00    -0.07  -0.08   0.00    -0.18  -0.08   0.00
    13   1    -0.17   0.17   0.00     0.42  -0.25  -0.00     0.03  -0.05  -0.00
    14   7     0.05  -0.11   0.00    -0.12   0.03   0.00     0.02  -0.02   0.00
    15   7    -0.01   0.10  -0.00    -0.12   0.00   0.00     0.02   0.01  -0.00
    16   1    -0.21   0.17  -0.00    -0.18   0.05  -0.00     0.07  -0.01   0.00
    17   6    -0.03   0.01   0.00     0.18  -0.03  -0.00    -0.06   0.02   0.00
    18   6    -0.03  -0.00   0.00     0.04  -0.03  -0.00    -0.09  -0.08   0.00
    19   6    -0.01   0.01   0.00     0.04   0.03  -0.00    -0.06   0.09   0.00
    20   6     0.03  -0.00   0.00    -0.02   0.05   0.00     0.10   0.02   0.00
    21   1    -0.01  -0.02  -0.00    -0.16   0.12   0.00    -0.30   0.04   0.00
    22   6     0.01  -0.00   0.00    -0.03  -0.04  -0.00     0.09  -0.04   0.00
    23   1    -0.16  -0.06   0.00    -0.05  -0.02  -0.00    -0.43  -0.08   0.00
    24   6     0.07  -0.01  -0.00     0.00   0.00   0.00     0.35  -0.03  -0.01
    25   1     0.06   0.01  -0.00    -0.32  -0.09   0.00    -0.21  -0.14  -0.00
    26   1     0.05  -0.02  -0.00    -0.27   0.11   0.01    -0.26   0.21  -0.00
    27   7    -0.03   0.00   0.01    -0.01  -0.00  -0.00    -0.18   0.02   0.01
    28   1    -0.07  -0.00  -0.03    -0.01  -0.01   0.02    -0.35  -0.03  -0.04
    29   1    -0.04   0.00  -0.02    -0.02   0.01   0.02    -0.31   0.07  -0.04
    30   8     0.03  -0.07   0.00    -0.03   0.04  -0.00    -0.01   0.01  -0.00
    31   8    -0.04   0.02  -0.00     0.04  -0.06   0.00     0.01  -0.00   0.00
    32   1    -0.03   0.34  -0.00     0.01  -0.01   0.00     0.02  -0.18   0.00
    33  16    -0.01  -0.01   0.00    -0.01   0.01  -0.00     0.00   0.00  -0.00
    34   8     0.00   0.00  -0.01     0.00  -0.00  -0.00     0.00  -0.00   0.00
    35   8    -0.00   0.01  -0.00     0.00  -0.01   0.00     0.00  -0.00   0.00
    36   8     0.00   0.00   0.01     0.00  -0.00   0.00     0.00  -0.00  -0.00
    37  16    -0.00  -0.01   0.00     0.00  -0.00  -0.00     0.00   0.00   0.00
    38   8    -0.00   0.00   0.00    -0.00  -0.00  -0.00     0.00  -0.00  -0.00
    39   8    -0.00   0.00  -0.00    -0.00   0.00  -0.00     0.00  -0.00   0.00
    40   8    -0.00   0.00  -0.00    -0.00  -0.00   0.00     0.00  -0.00   0.00
                     85                     86                     87
                      A                      A                      A
 Frequencies --   1336.6561              1355.3905              1359.6175
 Red. masses --      3.3244                 3.6219                 1.7788
 Frc consts  --      3.4995                 3.9203                 1.9373
 IR Inten    --    141.2973                49.1083                45.7018
  Atom  AN      X      Y      Z        X      Y      Z        X      Y      Z
     1   6     0.09   0.09  -0.00    -0.06  -0.08   0.00     0.00  -0.01   0.00
     2   6     0.01  -0.01   0.00    -0.08  -0.01  -0.00     0.01  -0.03   0.00
     3   6    -0.05  -0.00  -0.00     0.08   0.02   0.00     0.02   0.05  -0.00
     4   6     0.08   0.11   0.00    -0.05  -0.15   0.00     0.02  -0.02   0.00
     5   6     0.01   0.00  -0.00    -0.03   0.02  -0.00     0.01   0.01   0.00
     6   6     0.00  -0.12   0.00     0.02   0.10  -0.00     0.00  -0.00  -0.00
     7   6     0.05  -0.14   0.00    -0.06   0.16  -0.00    -0.05  -0.01  -0.00
     8   6     0.00   0.01  -0.00    -0.05  -0.02  -0.00    -0.05  -0.02  -0.00
     9   1    -0.50  -0.25  -0.00     0.45   0.25   0.00    -0.01  -0.00  -0.00
    10   6    -0.11  -0.02  -0.00     0.11   0.04   0.00     0.02   0.01   0.00
    11   6     0.06  -0.01   0.00    -0.03  -0.01   0.00     0.04  -0.01   0.00
    12   1     0.07   0.05  -0.00    -0.00  -0.00  -0.00     0.13   0.06  -0.00
    13   1    -0.15   0.13   0.00     0.03  -0.06  -0.00    -0.04   0.05   0.00
    14   7    -0.05   0.01  -0.00     0.10  -0.01  -0.00    -0.03   0.05  -0.00
    15   7    -0.08  -0.03   0.00    -0.03  -0.01   0.00     0.02  -0.03   0.00
    16   1     0.07  -0.11   0.00    -0.27   0.09  -0.00     0.14  -0.09   0.00
    17   6     0.10   0.19  -0.00     0.03   0.21   0.00    -0.01  -0.01   0.00
    18   6     0.06  -0.08  -0.00     0.07  -0.05  -0.00     0.08  -0.07  -0.00
    19   6    -0.03  -0.03   0.00    -0.06  -0.05   0.00    -0.11  -0.03   0.00
    20   6    -0.10  -0.04  -0.00    -0.13  -0.08  -0.00    -0.02  -0.00  -0.00
    21   1     0.12  -0.12  -0.00     0.22  -0.15  -0.00    -0.45   0.29   0.00
    22   6     0.07  -0.10  -0.00     0.10  -0.09  -0.00     0.04  -0.01   0.00
    23   1    -0.27  -0.15   0.00    -0.20  -0.12   0.00     0.39   0.21  -0.00
    24   6     0.01   0.09   0.00    -0.01   0.11   0.00     0.04   0.14  -0.00
    25   1     0.13   0.06  -0.00     0.35   0.14  -0.00    -0.35  -0.16   0.00
    26   1    -0.43   0.23   0.01    -0.30   0.17   0.00     0.29  -0.18  -0.01
    27   7    -0.01  -0.01  -0.00     0.01  -0.02  -0.00    -0.02  -0.04   0.00
    28   1     0.10   0.02   0.04     0.14   0.03   0.03     0.20   0.05   0.04
    29   1    -0.12   0.05  -0.02    -0.09   0.04  -0.03    -0.25   0.09  -0.04
    30   8     0.01  -0.01   0.00    -0.00   0.01   0.00    -0.00   0.02  -0.00
    31   8    -0.03   0.07  -0.00     0.04  -0.07   0.00    -0.00  -0.01   0.00
    32   1    -0.02  -0.04  -0.00     0.02  -0.07   0.00    -0.01   0.13  -0.00
    33  16     0.01  -0.00   0.00    -0.01  -0.00  -0.00    -0.00  -0.00   0.00
    34   8    -0.00  -0.00   0.00     0.00   0.00  -0.00    -0.00   0.00  -0.00
    35   8    -0.00   0.00  -0.00     0.00  -0.00   0.00     0.00   0.00  -0.00
    36   8    -0.00  -0.00  -0.00     0.00   0.00   0.00    -0.00   0.00   0.00
    37  16     0.01   0.01   0.00    -0.01  -0.00  -0.00    -0.00  -0.00  -0.00
    38   8    -0.00  -0.00  -0.00     0.00   0.00   0.00     0.00  -0.00   0.00
    39   8    -0.00   0.00  -0.00     0.00  -0.00   0.00     0.00   0.00   0.00
    40   8    -0.00  -0.00   0.00     0.00   0.00  -0.00     0.00  -0.00  -0.00
                     88                     89                     90
                      A                      A                      A
 Frequencies --   1370.5581              1409.0079              1430.3924
 Red. masses --      3.4192                 2.4297                 5.6622
 Frc consts  --      3.7841                 2.8420                 6.8256
 IR Inten    --    402.6931               150.2440                85.5594
  Atom  AN      X      Y      Z        X      Y      Z        X      Y      Z
     1   6    -0.05  -0.01   0.00    -0.09  -0.04   0.00     0.09   0.30  -0.00
     2   6     0.00   0.15  -0.00    -0.03   0.03  -0.00    -0.16  -0.05  -0.00
     3   6    -0.04  -0.13   0.00     0.12  -0.07   0.00     0.07  -0.14   0.00
     4   6    -0.07   0.10  -0.00    -0.09   0.12  -0.00    -0.01  -0.01   0.00
     5   6    -0.01  -0.04   0.00     0.02  -0.03   0.00    -0.03   0.11  -0.00
     6   6    -0.01   0.02  -0.00     0.02   0.01  -0.00     0.12  -0.22   0.00
     7   6     0.14  -0.03   0.00    -0.01  -0.00  -0.00    -0.08   0.25  -0.00
     8   6     0.16   0.05   0.00     0.05   0.04   0.00    -0.10   0.02  -0.00
     9   1     0.03  -0.02   0.00    -0.19  -0.13  -0.00    -0.49  -0.11  -0.00
    10   6    -0.06  -0.05  -0.00     0.02  -0.16   0.00     0.10  -0.14   0.00
    11   6    -0.13   0.05  -0.00    -0.05   0.10  -0.00    -0.01   0.06  -0.00
    12   1    -0.34  -0.18   0.00     0.18   0.11  -0.00     0.38   0.25  -0.00
    13   1     0.17  -0.16  -0.00     0.14  -0.03   0.00    -0.07   0.12   0.00
    14   7     0.08  -0.14   0.00     0.02   0.10  -0.00     0.01  -0.17   0.00
    15   7     0.01   0.11  -0.00     0.04  -0.09   0.00    -0.05   0.13  -0.00
    16   1    -0.41   0.30  -0.00     0.15  -0.15   0.00    -0.09   0.15  -0.00
    17   6    -0.02   0.03   0.00    -0.02   0.01   0.00     0.02   0.00  -0.00
    18   6     0.06  -0.03  -0.00     0.00   0.01   0.00    -0.02  -0.01   0.00
    19   6    -0.08  -0.05   0.00    -0.01   0.01   0.00     0.03  -0.02  -0.00
    20   6    -0.03  -0.03  -0.00    -0.03  -0.01   0.00     0.05   0.01  -0.00
    21   1    -0.13   0.10   0.00     0.03  -0.01  -0.00    -0.02  -0.01  -0.00
    22   6     0.02  -0.00   0.00     0.03  -0.01  -0.00    -0.06   0.02   0.00
    23   1     0.29   0.12  -0.00    -0.05  -0.01   0.00     0.06  -0.01  -0.00
    24   6    -0.02   0.11   0.00     0.01  -0.01  -0.00    -0.01   0.02   0.00
    25   1    -0.07  -0.05   0.00     0.12   0.06  -0.00    -0.16  -0.09   0.00
    26   1     0.27  -0.17  -0.01    -0.07   0.06   0.00     0.15  -0.13  -0.00
    27   7     0.02  -0.03   0.00    -0.00   0.01   0.00     0.01  -0.01   0.00
    28   1     0.20   0.04   0.02    -0.04  -0.01  -0.01     0.07   0.01   0.00
    29   1    -0.13   0.05  -0.04     0.02  -0.01   0.00    -0.04   0.01  -0.01
    30   8     0.01  -0.07   0.00     0.01   0.01   0.00     0.01  -0.04   0.00
    31   8    -0.01   0.04  -0.00    -0.03  -0.06   0.00     0.05  -0.10   0.00
    32   1     0.03  -0.17   0.00    -0.02   0.83  -0.00     0.03   0.04  -0.00
    33  16     0.00   0.00  -0.00     0.00   0.01   0.00    -0.01   0.00  -0.00
    34   8     0.00  -0.00   0.00     0.00  -0.00   0.00     0.00  -0.00  -0.00
    35   8    -0.00  -0.00   0.00    -0.00   0.00  -0.00    -0.00   0.00  -0.00
    36   8     0.00  -0.00  -0.00     0.00  -0.00  -0.00     0.00   0.00   0.00
    37  16     0.00  -0.00   0.00    -0.00  -0.00  -0.00     0.00   0.01  -0.00
    38   8    -0.00   0.00  -0.00     0.00   0.00   0.00    -0.00  -0.00  -0.00
    39   8    -0.00   0.00   0.00    -0.00   0.00  -0.00    -0.00   0.00  -0.00
    40   8    -0.00   0.00   0.00     0.00   0.00  -0.00    -0.00  -0.00   0.00
                     91                     92                     93
                      A                      A                      A
 Frequencies --   1442.2474              1467.0029              1496.9385
 Red. masses --      5.4270                 4.5921                 3.2188
 Frc consts  --      6.6510                 5.8227                 4.2497
 IR Inten    --    969.5354                46.6055                29.1765
  Atom  AN      X      Y      Z        X      Y      Z        X      Y      Z
     1   6     0.33  -0.07   0.00     0.10  -0.11   0.00    -0.07  -0.03   0.00
     2   6    -0.23  -0.10  -0.00     0.07  -0.08   0.00     0.01   0.02  -0.00
     3   6     0.24   0.07   0.00    -0.09  -0.07  -0.00    -0.01   0.01  -0.00
     4   6    -0.09   0.08  -0.00     0.24   0.09   0.00    -0.01  -0.02   0.00
     5   6    -0.14  -0.08  -0.00    -0.01  -0.12   0.00     0.01   0.01   0.00
     6   6     0.03   0.13  -0.00    -0.18   0.14  -0.00    -0.00   0.01  -0.00
     7   6     0.00  -0.17   0.00    -0.07   0.12  -0.00     0.03   0.00   0.00
     8   6     0.04  -0.05   0.00    -0.04   0.13  -0.00     0.02   0.01   0.00
     9   1     0.32   0.15   0.00     0.44   0.09   0.00     0.01   0.00   0.00
    10   6     0.02   0.08  -0.00    -0.11  -0.23   0.00    -0.01   0.01  -0.00
    11   6    -0.05   0.01  -0.00     0.13   0.01   0.00    -0.01  -0.01   0.00
    12   1    -0.02  -0.09   0.00     0.00   0.17  -0.00    -0.06  -0.03   0.00
    13   1     0.25  -0.21   0.00    -0.35   0.37   0.00    -0.02  -0.00  -0.00
    14   7    -0.11  -0.08   0.00     0.02  -0.08   0.00     0.06   0.04  -0.00
    15   7    -0.09   0.10  -0.00    -0.06   0.07  -0.00    -0.05  -0.05   0.00
    16   1    -0.16   0.17  -0.00    -0.21   0.17  -0.00     0.20  -0.21   0.00
    17   6     0.05  -0.00  -0.00     0.02   0.01  -0.00     0.01   0.16   0.00
    18   6     0.00  -0.03  -0.00    -0.00  -0.01  -0.00    -0.15  -0.04   0.00
    19   6     0.06   0.01  -0.00     0.02   0.00  -0.00     0.17  -0.04  -0.00
    20   6     0.05   0.03  -0.00     0.02   0.00  -0.00     0.18  -0.02  -0.00
    21   1    -0.09   0.03   0.00    -0.01  -0.01   0.00     0.12  -0.25  -0.00
    22   6    -0.04  -0.01   0.00    -0.01  -0.01   0.00    -0.18  -0.02   0.00
    23   1    -0.07  -0.05   0.00    -0.03  -0.02   0.00    -0.24  -0.27   0.00
    24   6    -0.03   0.01   0.00    -0.01   0.02   0.00    -0.01   0.17   0.00
    25   1    -0.25  -0.11   0.00    -0.07  -0.04   0.00    -0.37  -0.30   0.00
    26   1    -0.06  -0.01   0.00    -0.01  -0.01   0.00     0.23  -0.32  -0.01
    27   7     0.00  -0.01  -0.00     0.00  -0.01  -0.00     0.00  -0.06  -0.00
    28   1     0.04  -0.00   0.02     0.03   0.00   0.01     0.25   0.04   0.04
    29   1    -0.01   0.01   0.02    -0.01   0.01   0.00    -0.21   0.06  -0.04
    30   8     0.04   0.03  -0.00    -0.03   0.07  -0.00     0.00  -0.00   0.00
    31   8    -0.04   0.01  -0.00     0.01  -0.06   0.00    -0.01  -0.00  -0.00
    32   1    -0.01   0.46  -0.00    -0.03   0.34  -0.00    -0.00   0.06  -0.00
    33  16     0.00  -0.00   0.00     0.01   0.01  -0.00    -0.00  -0.00  -0.00
    34   8    -0.00  -0.00   0.00     0.00  -0.00  -0.00     0.00   0.00  -0.00
    35   8    -0.00   0.00  -0.00    -0.01   0.00  -0.00     0.00  -0.00   0.00
    36   8    -0.00  -0.00  -0.00     0.00  -0.00   0.00     0.00   0.00   0.00
    37  16     0.00  -0.01   0.00     0.01  -0.00   0.00    -0.00  -0.00   0.00
    38   8    -0.00   0.00   0.00     0.00   0.00   0.00     0.00   0.00   0.00
    39   8     0.00  -0.00   0.00     0.00  -0.01   0.00    -0.00   0.00   0.00
    40   8    -0.00   0.00  -0.00     0.00   0.00  -0.00     0.00   0.00  -0.00
                     94                     95                     96
                      A                      A                      A
 Frequencies --   1525.9349              1565.0736              1574.6780
 Red. masses --      3.1868                 2.7068                 3.7774
 Frc consts  --      4.3720                 3.9064                 5.5186
 IR Inten    --    428.5769                54.4378              1333.0677
  Atom  AN      X      Y      Z        X      Y      Z        X      Y      Z
     1   6    -0.09  -0.01   0.00     0.05   0.00  -0.00     0.11  -0.03   0.00
     2   6     0.12  -0.12   0.00    -0.01  -0.02   0.00    -0.08   0.16  -0.00
     3   6     0.07  -0.09   0.00     0.00   0.02  -0.00     0.03   0.07  -0.00
     4   6    -0.01   0.21  -0.00    -0.01  -0.02   0.00     0.09  -0.06   0.00
     5   6    -0.03  -0.08   0.00     0.00   0.01   0.00     0.08   0.02   0.00
     6   6     0.02   0.04  -0.00    -0.01   0.00  -0.00    -0.11  -0.00  -0.00
     7   6    -0.11  -0.09  -0.00     0.01  -0.00   0.00    -0.08  -0.06  -0.00
     8   6    -0.10  -0.10  -0.00     0.01   0.01   0.00    -0.08   0.04  -0.00
     9   1    -0.00  -0.07   0.00    -0.00   0.00  -0.00    -0.03  -0.04  -0.00
    10   6     0.10   0.00   0.00    -0.01   0.00  -0.00     0.05  -0.14   0.00
    11   6    -0.03   0.08  -0.00     0.01  -0.01   0.00    -0.06   0.13  -0.00
    12   1     0.45   0.15   0.00    -0.04  -0.02  -0.00     0.09   0.12  -0.00
    13   1     0.29  -0.13   0.00    -0.02   0.01  -0.00     0.22  -0.05   0.00
    14   7     0.05  -0.03   0.00    -0.05   0.02   0.00    -0.16   0.07  -0.00
    15   7     0.01   0.01  -0.00    -0.02  -0.03   0.00     0.17  -0.11  -0.00
    16   1    -0.14   0.09  -0.00    -0.17   0.06  -0.00    -0.57   0.30   0.00
    17   6     0.01   0.02  -0.00     0.18   0.01  -0.00    -0.05   0.02   0.00
    18   6    -0.03   0.01   0.00    -0.11   0.11   0.00    -0.04   0.01   0.00
    19   6     0.00  -0.01  -0.00    -0.09  -0.09   0.00     0.03   0.01  -0.00
    20   6     0.01  -0.02  -0.00    -0.08  -0.09   0.00     0.03  -0.02  -0.00
    21   1     0.07  -0.05  -0.00     0.41  -0.23  -0.00     0.05  -0.05  -0.00
    22   6    -0.02   0.00   0.00    -0.10   0.10   0.00    -0.00  -0.02  -0.00
    23   1     0.02  -0.01  -0.00     0.38   0.11  -0.00    -0.09  -0.05   0.00
    24   6     0.02   0.02  -0.00     0.19   0.00  -0.01    -0.01   0.05   0.00
    25   1     0.03  -0.01  -0.00     0.40   0.11  -0.01    -0.03  -0.06   0.00
    26   1     0.06  -0.05  -0.00     0.41  -0.23  -0.01    -0.02  -0.01   0.00
    27   7    -0.00  -0.01   0.00    -0.04  -0.00   0.01    -0.00  -0.01  -0.00
    28   1     0.02   0.00   0.00    -0.11  -0.03  -0.01     0.04   0.01   0.01
    29   1    -0.04   0.01  -0.01    -0.15   0.06  -0.01    -0.04   0.01  -0.00
    30   8    -0.07   0.10  -0.00     0.00   0.01  -0.00     0.04  -0.09   0.00
    31   8     0.04   0.07  -0.00    -0.01  -0.01  -0.00     0.03   0.02   0.00
    32   1     0.03  -0.66   0.00    -0.01   0.10  -0.00     0.06  -0.49   0.00
    33  16    -0.01  -0.00   0.00     0.00   0.00  -0.00    -0.00   0.00   0.00
    34   8     0.00   0.00  -0.00    -0.00  -0.00   0.00     0.00  -0.00  -0.00
    35   8     0.00   0.00   0.00    -0.00   0.00  -0.00    -0.00   0.00  -0.00
    36   8     0.00   0.00   0.00    -0.00  -0.00  -0.00     0.00  -0.00   0.00
    37  16    -0.00  -0.00   0.00     0.00   0.00  -0.00     0.00   0.00   0.00
    38   8     0.00   0.00   0.00    -0.00  -0.00  -0.00     0.00   0.00  -0.00
    39   8    -0.00   0.00  -0.00     0.00  -0.00   0.00     0.00  -0.00   0.00
    40   8     0.00   0.00  -0.00    -0.00  -0.00   0.00     0.00   0.00   0.00
                     97                     98                     99
                      A                      A                      A
 Frequencies --   1608.5132              1630.5791              1657.6416
 Red. masses --      2.4288                 7.6116                 1.2788
 Frc consts  --      3.7025                11.9237                 2.0703
 IR Inten    --    547.0850               323.3878                30.1771
  Atom  AN      X      Y      Z        X      Y      Z        X      Y      Z
     1   6     0.00  -0.06   0.00     0.10  -0.13   0.00     0.00  -0.00   0.00
     2   6    -0.07   0.10  -0.00    -0.04   0.31  -0.00    -0.00   0.00  -0.00
     3   6     0.00   0.05  -0.00    -0.02  -0.30   0.00     0.00  -0.01   0.00
     4   6     0.09  -0.04   0.00     0.03   0.22  -0.00    -0.00   0.01  -0.00
     5   6    -0.01  -0.01  -0.00    -0.27  -0.08  -0.00     0.01  -0.00   0.00
     6   6    -0.02   0.02  -0.00     0.21   0.04   0.00    -0.01   0.00  -0.00
     7   6     0.00  -0.05   0.00    -0.07   0.20  -0.00     0.00   0.01  -0.00
     8   6    -0.06   0.03  -0.00    -0.03  -0.07   0.00    -0.00  -0.01   0.00
     9   1     0.08   0.04   0.00     0.18   0.16   0.00    -0.01  -0.01  -0.00
    10   6     0.05  -0.10   0.00    -0.02   0.14  -0.00     0.00   0.01  -0.00
    11   6    -0.08   0.10  -0.00     0.13  -0.14   0.00     0.00  -0.01   0.00
    12   1     0.06   0.09  -0.00     0.13  -0.00   0.00     0.01  -0.00   0.00
    13   1     0.17  -0.07   0.00    -0.27   0.14  -0.00    -0.01   0.00  -0.00
    14   7     0.07   0.00  -0.00    -0.14   0.14  -0.00    -0.00   0.01  -0.00
    15   7    -0.15   0.05   0.00     0.04  -0.09   0.00     0.00  -0.01  -0.00
    16   1     0.70  -0.43   0.00     0.23  -0.24   0.00    -0.04   0.01   0.00
    17   6     0.06   0.02  -0.00    -0.02   0.03   0.00     0.03   0.04   0.00
    18   6     0.04  -0.03  -0.00     0.05  -0.03  -0.00    -0.03  -0.01  -0.00
    19   6    -0.03  -0.03   0.00     0.04  -0.01  -0.00    -0.05  -0.03   0.00
    20   6    -0.02   0.03   0.00    -0.05   0.01   0.00     0.04   0.03  -0.00
    21   1    -0.06   0.04   0.00    -0.06   0.05   0.00    -0.00  -0.04   0.00
    22   6    -0.02   0.05   0.00    -0.06   0.04   0.00     0.02   0.02  -0.00
    23   1     0.11   0.03  -0.00    -0.02  -0.05  -0.00     0.07   0.02   0.00
    24   6     0.02  -0.08  -0.00     0.04  -0.04  -0.00     0.01  -0.04   0.01
    25   1     0.01   0.06  -0.00     0.04   0.05  -0.00    -0.07  -0.02   0.00
    26   1     0.08  -0.01  -0.00     0.09  -0.06  -0.00    -0.00   0.03   0.00
    27   7     0.00   0.02   0.00     0.00   0.00   0.00    -0.09   0.01   0.02
    28   1    -0.08  -0.02  -0.01    -0.06  -0.02  -0.01     0.53   0.36  -0.19
    29   1     0.04  -0.01   0.01    -0.02   0.02   0.00     0.53  -0.45  -0.18
    30   8     0.03  -0.05   0.00     0.04  -0.13   0.00     0.00  -0.00   0.00
    31   8     0.01   0.02  -0.00     0.03  -0.02   0.00    -0.00  -0.00   0.00
    32   1     0.05  -0.34   0.00     0.04  -0.33   0.00    -0.00   0.01  -0.00
    33  16    -0.00   0.00   0.00     0.00  -0.00  -0.00     0.00  -0.00   0.00
    34   8     0.00  -0.00  -0.00    -0.00   0.00   0.00    -0.00   0.00   0.00
    35   8    -0.00  -0.00   0.00     0.00   0.00  -0.00     0.00   0.00   0.00
    36   8     0.00   0.00   0.00    -0.00   0.00  -0.00    -0.00   0.00  -0.00
    37  16     0.00  -0.00   0.00    -0.01  -0.00  -0.00     0.00  -0.00  -0.00
    38   8    -0.00   0.00  -0.00     0.00  -0.00   0.00     0.00   0.00   0.00
    39   8    -0.00  -0.00   0.00     0.00   0.00   0.00    -0.00  -0.00  -0.00
    40   8    -0.00   0.00   0.00     0.00  -0.00  -0.00     0.00   0.00  -0.00
                    100                    101                    102
                      A                      A                      A
 Frequencies --   1661.2227              1666.5455              1682.2119
 Red. masses --      4.2429                 6.3576                 5.2648
 Frc consts  --      6.8987                10.4035                 8.7780
 IR Inten    --    228.8829                90.3301               561.0761
  Atom  AN      X      Y      Z        X      Y      Z        X      Y      Z
     1   6     0.01   0.00   0.00    -0.08   0.04  -0.00    -0.01  -0.02   0.00
     2   6     0.00  -0.02   0.00     0.05  -0.07   0.00    -0.01   0.06  -0.00
     3   6     0.01  -0.04   0.00     0.06   0.16  -0.00     0.01  -0.02   0.00
     4   6    -0.03   0.03  -0.00    -0.08  -0.10  -0.00     0.00   0.02  -0.00
     5   6     0.11   0.01   0.00    -0.24  -0.00  -0.00    -0.05  -0.01  -0.00
     6   6    -0.10   0.01  -0.00     0.27  -0.04   0.00     0.05  -0.00   0.00
     7   6     0.02   0.02   0.00    -0.25  -0.09  -0.00    -0.03   0.02  -0.00
     8   6    -0.03  -0.04  -0.00     0.25   0.18   0.00     0.01   0.00   0.00
     9   1    -0.09  -0.10  -0.00     0.13   0.20  -0.00     0.03   0.03   0.00
    10   6     0.01   0.06  -0.00    -0.14  -0.21  -0.00    -0.01  -0.00  -0.00
    11   6     0.00  -0.03   0.00     0.14   0.05   0.00     0.02  -0.01   0.00
    12   1     0.06  -0.01   0.00    -0.36  -0.09  -0.00    -0.01  -0.00  -0.00
    13   1    -0.03  -0.01  -0.00    -0.02   0.19   0.00    -0.02   0.02  -0.00
    14   7    -0.00   0.00  -0.00     0.00   0.01  -0.00    -0.00   0.02  -0.00
    15   7     0.04  -0.05   0.00     0.04  -0.03   0.00    -0.02  -0.00   0.00
    16   1    -0.33   0.14   0.00    -0.17   0.07   0.00     0.12  -0.08  -0.00
    17   6     0.02   0.28   0.00    -0.01   0.11   0.00     0.16  -0.06  -0.00
    18   6     0.04  -0.15  -0.00     0.03  -0.06  -0.00    -0.26   0.12   0.00
    19   6    -0.09  -0.15   0.00    -0.02  -0.05   0.00    -0.26  -0.03   0.00
    20   6     0.10   0.14   0.00     0.02   0.05   0.00     0.26   0.02  -0.00
    21   1    -0.19  -0.02   0.00    -0.08   0.00   0.00     0.25  -0.24  -0.00
    22   6    -0.03   0.14   0.00    -0.03   0.05   0.00     0.27  -0.10  -0.00
    23   1     0.20  -0.03  -0.00     0.05  -0.03  -0.00     0.23   0.21  -0.00
    24   6    -0.06  -0.25  -0.01    -0.01  -0.09  -0.00    -0.19   0.05  -0.00
    25   1    -0.21   0.01   0.00    -0.07   0.01   0.00    -0.20  -0.21   0.00
    26   1     0.17   0.02  -0.00     0.07  -0.01  -0.00    -0.22   0.24   0.00
    27   7     0.06   0.03  -0.01     0.00   0.01  -0.00     0.06  -0.01  -0.02
    28   1    -0.48  -0.24   0.09    -0.07  -0.02  -0.01    -0.19  -0.16   0.13
    29   1    -0.14   0.21   0.15     0.04  -0.01   0.01    -0.20   0.20   0.12
    30   8    -0.01   0.01  -0.00    -0.02   0.03  -0.00     0.01  -0.03   0.00
    31   8    -0.01  -0.01  -0.00     0.04   0.03   0.00     0.01  -0.00   0.00
    32   1    -0.02   0.13  -0.00     0.02  -0.47   0.00     0.01  -0.09   0.00
    33  16     0.00  -0.00   0.00     0.01   0.01  -0.00     0.00  -0.00  -0.00
    34   8    -0.00   0.00   0.00     0.00  -0.00   0.00    -0.00  -0.00   0.00
    35   8     0.00  -0.00   0.00    -0.01   0.00  -0.00    -0.00   0.00  -0.00
    36   8    -0.00   0.00  -0.00     0.00  -0.00  -0.00    -0.00  -0.00  -0.00
    37  16     0.00  -0.00   0.00    -0.01   0.00  -0.00    -0.00  -0.00  -0.00
    38   8     0.00   0.00   0.00    -0.00  -0.00  -0.00     0.00   0.00   0.00
    39   8    -0.00  -0.00   0.00     0.00   0.00  -0.00    -0.00   0.00  -0.00
    40   8     0.00   0.00  -0.00    -0.00  -0.00   0.00     0.00   0.00  -0.00
                    103                    104                    105
                      A                      A                      A
 Frequencies --   1698.6244              3189.7536              3193.8440
 Red. masses --      5.5340                 1.0889                 1.0914
 Frc consts  --      9.4076                 6.5273                 6.5596
 IR Inten    --    253.3427                21.6186                26.4462
  Atom  AN      X      Y      Z        X      Y      Z        X      Y      Z
     1   6     0.03  -0.04   0.00    -0.00  -0.00   0.00    -0.00  -0.00   0.00
     2   6    -0.09   0.07  -0.00     0.00   0.00   0.00     0.00   0.00   0.00
     3   6     0.18  -0.07   0.00    -0.00   0.00  -0.00     0.00  -0.00  -0.00
     4   6    -0.23   0.05  -0.00     0.00   0.00   0.00     0.00   0.00   0.00
     5   6     0.27   0.03   0.00     0.00  -0.00   0.00    -0.00  -0.00   0.00
     6   6    -0.24   0.03  -0.00     0.00  -0.00  -0.00     0.00  -0.00  -0.00
     7   6    -0.26   0.03  -0.00    -0.00  -0.00   0.00    -0.00   0.00   0.00
     8   6     0.15   0.01   0.00    -0.00   0.00  -0.00    -0.00   0.00  -0.00
     9   1    -0.23  -0.24  -0.00    -0.00   0.00   0.00    -0.00   0.00  -0.00
    10   6    -0.09   0.03  -0.00     0.00   0.00   0.00    -0.00   0.00   0.00
    11   6     0.20  -0.08   0.00     0.00  -0.00  -0.00     0.00  -0.00  -0.00
    12   1    -0.10  -0.11   0.00     0.00  -0.00   0.00     0.00  -0.00   0.00
    13   1    -0.14   0.17  -0.00    -0.00   0.00   0.00     0.00   0.00   0.00
    14   7     0.05  -0.03   0.00     0.00  -0.00  -0.00     0.00  -0.00  -0.00
    15   7    -0.07   0.05  -0.00    -0.00   0.00   0.00    -0.00   0.00  -0.00
    16   1     0.32  -0.17   0.00     0.00  -0.00  -0.00    -0.00  -0.00   0.00
    17   6     0.01  -0.05  -0.00    -0.00   0.00   0.00     0.00   0.00  -0.00
    18   6     0.01   0.02   0.00    -0.03  -0.05  -0.00     0.00   0.00   0.00
    19   6     0.01   0.02  -0.00     0.00   0.00   0.00    -0.00   0.01   0.00
    20   6    -0.03  -0.02   0.00    -0.02   0.05   0.00     0.00  -0.01  -0.00
    21   1     0.02   0.02  -0.00     0.41   0.61   0.00    -0.01  -0.01  -0.00
    22   6    -0.00  -0.02  -0.00    -0.00  -0.01   0.00    -0.05  -0.07   0.00
    23   1    -0.02   0.01   0.00     0.01  -0.02  -0.00     0.05  -0.11  -0.00
    24   6     0.01   0.03   0.00    -0.00  -0.00   0.00    -0.00   0.00   0.00
    25   1     0.04   0.01  -0.00     0.28  -0.60  -0.00    -0.05   0.11   0.00
    26   1    -0.02  -0.01   0.00     0.05   0.08   0.00     0.54   0.82   0.00
    27   7    -0.00  -0.00   0.00     0.00   0.00  -0.00     0.00  -0.00  -0.00
    28   1     0.03   0.01  -0.00     0.00   0.00   0.00     0.00   0.00   0.00
    29   1    -0.01  -0.01  -0.01     0.00  -0.00   0.00     0.00  -0.00   0.00
    30   8     0.01  -0.03   0.00    -0.00  -0.00  -0.00     0.00  -0.00   0.00
    31   8     0.04   0.01   0.00     0.00  -0.00   0.00     0.00  -0.00   0.00
    32   1     0.05  -0.52   0.00    -0.00   0.00  -0.00    -0.00   0.00  -0.00
    33  16     0.01  -0.00  -0.00     0.00   0.00   0.00     0.00   0.00  -0.00
    34   8    -0.00  -0.00   0.00    -0.00  -0.00   0.00    -0.00  -0.00   0.00
    35   8    -0.00   0.00  -0.00    -0.00   0.00   0.00    -0.00   0.00  -0.00
    36   8    -0.00  -0.00  -0.00    -0.00  -0.00  -0.00    -0.00  -0.00  -0.00
    37  16     0.01  -0.00   0.00    -0.00  -0.00   0.00     0.00  -0.00   0.00
    38   8    -0.00   0.00  -0.00    -0.00   0.00   0.00    -0.00   0.00   0.00
    39   8    -0.00  -0.00  -0.00    -0.00   0.00  -0.00    -0.00   0.00   0.00
    40   8    -0.00   0.00   0.00    -0.00   0.00  -0.00    -0.00   0.00  -0.00
                    106                    107                    108
                      A                      A                      A
 Frequencies --   3204.2471              3221.0484              3228.6689
 Red. masses --      1.0961                 1.0920                 1.0915
 Frc consts  --      6.6309                 6.6754                 6.7040
 IR Inten    --     17.8018                 3.7514                 2.2757
  Atom  AN      X      Y      Z        X      Y      Z        X      Y      Z
     1   6     0.00   0.00  -0.00    -0.00  -0.00   0.00    -0.00   0.00  -0.00
     2   6    -0.00  -0.00   0.00     0.00  -0.00  -0.00     0.00  -0.00  -0.00
     3   6    -0.00   0.00   0.00    -0.00   0.00  -0.00     0.00   0.00  -0.00
     4   6    -0.00  -0.00  -0.00    -0.00   0.00  -0.00     0.00   0.00   0.00
     5   6     0.00   0.00  -0.00    -0.00   0.00   0.00     0.03  -0.06   0.00
     6   6    -0.00   0.00   0.00    -0.00   0.00  -0.00    -0.00  -0.00  -0.00
     7   6     0.00  -0.00  -0.00     0.00  -0.00   0.00    -0.00   0.00  -0.00
     8   6     0.00   0.00   0.00     0.00  -0.00   0.00    -0.02   0.05  -0.00
     9   1     0.00  -0.00   0.00     0.00  -0.00   0.00    -0.33   0.69  -0.00
    10   6     0.00  -0.00   0.00    -0.00   0.00  -0.00    -0.00  -0.00  -0.00
    11   6    -0.00   0.00   0.00    -0.05  -0.07  -0.00    -0.00  -0.00  -0.00
    12   1    -0.00   0.00  -0.00    -0.01   0.03  -0.00     0.27  -0.58   0.01
    13   1    -0.00  -0.00  -0.00     0.58   0.81   0.01     0.01   0.02   0.00
    14   7    -0.00   0.00  -0.00     0.00  -0.00  -0.00     0.00  -0.00   0.00
    15   7     0.00  -0.00  -0.00    -0.00  -0.00   0.00    -0.00  -0.00   0.00
    16   1    -0.00  -0.00  -0.00     0.00   0.00  -0.00     0.00   0.01  -0.00
    17   6    -0.00   0.00   0.00    -0.00   0.00  -0.00     0.00   0.00   0.00
    18   6    -0.04  -0.05  -0.00    -0.00  -0.00   0.00    -0.00  -0.00   0.00
    19   6     0.00  -0.00  -0.00     0.00   0.00  -0.00     0.00   0.00   0.00
    20   6     0.03  -0.06  -0.00     0.00  -0.00  -0.00     0.00  -0.00  -0.00
    21   1     0.38   0.56   0.00     0.00   0.00  -0.00     0.00   0.00  -0.00
    22   6     0.00   0.01   0.00    -0.00   0.00   0.00     0.00   0.00   0.00
    23   1    -0.01   0.01   0.00     0.00  -0.00   0.00    -0.00   0.00   0.00
    24   6     0.00   0.00  -0.00     0.00  -0.00   0.00     0.00  -0.00   0.00
    25   1    -0.31   0.66   0.00    -0.00   0.00   0.00    -0.00   0.00   0.00
    26   1    -0.04  -0.07  -0.00    -0.00  -0.00   0.00    -0.00  -0.00   0.00
    27   7    -0.00  -0.00   0.00    -0.00   0.00  -0.00    -0.00   0.00  -0.00
    28   1    -0.00  -0.00  -0.00    -0.00   0.00   0.00    -0.00   0.00   0.00
    29   1    -0.00   0.00  -0.00    -0.00  -0.00   0.00    -0.00  -0.00   0.00
    30   8    -0.00   0.00  -0.00     0.00   0.00  -0.00    -0.00   0.00  -0.00
    31   8    -0.00   0.00  -0.00    -0.00  -0.00  -0.00    -0.00  -0.00  -0.00
    32   1     0.00  -0.00   0.00     0.01   0.00   0.00     0.01  -0.00   0.00
    33  16    -0.00   0.00  -0.00    -0.00  -0.00  -0.00    -0.00   0.00  -0.00
    34   8     0.00   0.00  -0.00     0.00   0.00  -0.00     0.00  -0.00  -0.00
    35   8     0.00  -0.00   0.00     0.00  -0.00   0.00    -0.00  -0.00   0.00
    36   8     0.00   0.00   0.00    -0.00   0.00   0.00     0.00  -0.00   0.00
    37  16     0.00   0.00   0.00    -0.00  -0.00  -0.00     0.00  -0.00   0.00
    38   8    -0.00  -0.00  -0.00     0.00   0.00   0.00     0.00   0.00  -0.00
    39   8     0.00  -0.00   0.00    -0.00   0.00  -0.00    -0.00  -0.00  -0.00
    40   8    -0.00  -0.00   0.00     0.00   0.00  -0.00     0.00   0.00   0.00
                    109                    110                    111
                      A                      A                      A
 Frequencies --   3230.4373              3247.8232              3279.1123
 Red. masses --      1.0915                 1.0919                 1.0804
 Frc consts  --      6.7114                 6.7861                 6.8446
 IR Inten    --     10.9214                 0.4732               143.7815
  Atom  AN      X      Y      Z        X      Y      Z        X      Y      Z
     1   6    -0.00   0.00  -0.00     0.00   0.00  -0.00    -0.01  -0.00   0.00
     2   6    -0.00   0.00  -0.00     0.00  -0.00   0.00     0.00   0.01  -0.00
     3   6    -0.00   0.00  -0.00    -0.00   0.00  -0.00     0.00  -0.00   0.00
     4   6    -0.00   0.00  -0.00    -0.00  -0.00  -0.00     0.00   0.00   0.00
     5   6     0.03  -0.05   0.00     0.00  -0.00   0.00    -0.00   0.00  -0.00
     6   6    -0.00   0.00  -0.00    -0.00   0.00   0.00     0.00  -0.00   0.00
     7   6     0.00  -0.00   0.00     0.00  -0.00   0.00    -0.00   0.00  -0.00
     8   6     0.03  -0.06   0.00     0.00   0.00   0.00    -0.00  -0.00  -0.00
     9   1    -0.28   0.58  -0.00    -0.00   0.00  -0.00     0.01  -0.01   0.00
    10   6     0.00   0.00   0.00    -0.00  -0.00   0.00     0.00   0.00  -0.00
    11   6     0.00   0.00   0.00    -0.00   0.00  -0.00     0.00  -0.00   0.00
    12   1    -0.32   0.69  -0.01    -0.00   0.00  -0.00    -0.00   0.00  -0.00
    13   1    -0.01  -0.02  -0.00     0.00   0.00   0.00    -0.00  -0.00  -0.00
    14   7     0.00  -0.00   0.00    -0.00   0.00  -0.00     0.01  -0.00  -0.00
    15   7    -0.00  -0.00   0.00     0.00   0.00  -0.00    -0.04  -0.06   0.00
    16   1     0.00   0.01  -0.00    -0.02  -0.03   0.00     0.44   0.85  -0.01
    17   6     0.00   0.00  -0.00     0.00   0.00  -0.00     0.00   0.00  -0.00
    18   6    -0.00  -0.00  -0.00    -0.00   0.00   0.00    -0.00  -0.00   0.00
    19   6     0.00   0.00  -0.00     0.04  -0.08  -0.00     0.00  -0.00  -0.00
    20   6     0.00  -0.00  -0.00    -0.00   0.00   0.00    -0.00  -0.00   0.00
    21   1     0.00   0.00  -0.00     0.00   0.00   0.00    -0.00   0.00  -0.00
    22   6     0.00   0.00   0.00    -0.01  -0.01   0.00    -0.00   0.00   0.00
    23   1     0.00  -0.00  -0.00    -0.43   0.89   0.00    -0.01   0.03   0.00
    24   6     0.00  -0.00   0.00    -0.00   0.00   0.00     0.00  -0.00   0.00
    25   1    -0.00   0.00   0.00     0.00  -0.01  -0.00    -0.00   0.00   0.00
    26   1    -0.00  -0.00  -0.00     0.07   0.10  -0.00     0.00   0.01  -0.00
    27   7    -0.00  -0.00  -0.00     0.00  -0.00   0.00    -0.00   0.00  -0.00
    28   1    -0.00   0.00   0.00     0.00  -0.00  -0.00    -0.00   0.00   0.00
    29   1    -0.00  -0.00   0.00     0.00   0.00  -0.00    -0.00  -0.00   0.00
    30   8     0.00  -0.00   0.00    -0.00   0.00  -0.00     0.00  -0.00   0.00
    31   8     0.00   0.00   0.00     0.00   0.00   0.00    -0.02  -0.00  -0.00
    32   1    -0.01   0.00  -0.00    -0.00   0.00  -0.00     0.27  -0.00   0.00
    33  16     0.00  -0.00   0.00    -0.00   0.00   0.00     0.00   0.00   0.00
    34   8    -0.00   0.00   0.00     0.00   0.00  -0.00    -0.00  -0.00   0.00
    35   8     0.00   0.00  -0.00     0.00  -0.00   0.00    -0.00   0.00   0.00
    36   8    -0.00   0.00  -0.00     0.00   0.00   0.00    -0.00  -0.00  -0.00
    37  16     0.00  -0.00   0.00    -0.00   0.00  -0.00    -0.00  -0.00  -0.00
    38   8     0.00   0.00   0.00     0.00  -0.00  -0.00     0.00   0.00   0.00
    39   8    -0.00  -0.00  -0.00     0.00  -0.00  -0.00     0.00   0.00  -0.00
    40   8     0.00   0.00  -0.00     0.00  -0.00   0.00     0.00   0.00  -0.00
                    112                    113                    114
                      A                      A                      A
 Frequencies --   3314.0917              3593.9042              3691.0630
 Red. masses --      1.0701                 1.0480                 1.1005
 Frc consts  --      6.9246                 7.9752                 8.8338
 IR Inten    --   1129.3569               172.6706                52.1981
  Atom  AN      X      Y      Z        X      Y      Z        X      Y      Z
     1   6     0.00   0.00  -0.00    -0.00  -0.00   0.00    -0.00  -0.00   0.00
     2   6     0.01  -0.01   0.00     0.00   0.00  -0.00    -0.00   0.00  -0.00
     3   6    -0.00  -0.00  -0.00     0.00  -0.00   0.00     0.00  -0.00   0.00
     4   6    -0.00  -0.00   0.00     0.00   0.00   0.00     0.00   0.00   0.00
     5   6     0.00   0.00  -0.00    -0.00  -0.00  -0.00    -0.00  -0.00  -0.00
     6   6     0.00   0.00  -0.00     0.00  -0.00   0.00     0.00  -0.00   0.00
     7   6    -0.00   0.01  -0.00    -0.00   0.00  -0.00    -0.00   0.00   0.00
     8   6     0.00  -0.00   0.00    -0.00  -0.00   0.00    -0.00  -0.00  -0.00
     9   1     0.00  -0.00   0.00     0.00  -0.00  -0.00     0.00  -0.00  -0.00
    10   6    -0.00   0.00  -0.00    -0.00   0.00  -0.00     0.00  -0.00   0.00
    11   6     0.00  -0.00   0.00     0.00  -0.00   0.00     0.00  -0.00   0.00
    12   1    -0.01   0.01  -0.00     0.00  -0.00  -0.00     0.00  -0.00  -0.00
    13   1    -0.01  -0.01  -0.00    -0.00  -0.00   0.00     0.00  -0.00   0.00
    14   7    -0.00   0.00   0.00     0.00  -0.00  -0.00    -0.00   0.00  -0.00
    15   7     0.01   0.02  -0.00     0.00   0.00  -0.00     0.00   0.00   0.00
    16   1    -0.13  -0.23   0.00    -0.00  -0.00   0.00    -0.00  -0.00   0.00
    17   6    -0.00  -0.00   0.00    -0.00  -0.00   0.00     0.00   0.00   0.00
    18   6     0.00   0.00  -0.00     0.00   0.00   0.00     0.00  -0.00   0.00
    19   6    -0.00   0.00   0.00     0.00  -0.00   0.00    -0.00   0.00  -0.00
    20   6     0.00   0.00  -0.00    -0.00  -0.00   0.00     0.00   0.00   0.00
    21   1    -0.00  -0.00   0.00    -0.00  -0.00  -0.00    -0.00   0.00  -0.00
    22   6     0.00  -0.00  -0.00    -0.00   0.00   0.00    -0.00   0.00  -0.00
    23   1     0.00  -0.00  -0.00    -0.00   0.00  -0.00     0.00   0.00   0.00
    24   6    -0.00   0.00  -0.00    -0.00   0.00  -0.00    -0.00  -0.00  -0.00
    25   1     0.00  -0.00  -0.00     0.00   0.00  -0.00     0.00   0.00  -0.00
    26   1     0.00   0.00   0.00     0.00  -0.00  -0.00    -0.00   0.00   0.00
    27   7     0.00  -0.00   0.00     0.05  -0.00  -0.03    -0.01  -0.08  -0.00
    28   1     0.00  -0.00  -0.00    -0.27   0.62   0.21    -0.28   0.61   0.22
    29   1     0.00   0.00  -0.00    -0.36  -0.57   0.21     0.36   0.56  -0.22
    30   8    -0.00   0.01  -0.00     0.00  -0.00   0.00     0.00  -0.00  -0.00
    31   8    -0.06  -0.00  -0.00    -0.00  -0.00   0.00     0.00  -0.00   0.00
    32   1     0.96   0.00   0.01     0.00   0.00   0.00     0.00   0.00   0.00
    33  16    -0.00   0.00   0.00     0.00  -0.00   0.00     0.00  -0.00   0.00
    34   8     0.00   0.00  -0.00    -0.00  -0.00   0.00     0.00  -0.00   0.00
    35   8     0.00  -0.00   0.00    -0.00   0.00  -0.00    -0.00  -0.00   0.00
    36   8     0.00   0.00   0.00    -0.00  -0.00  -0.00    -0.00  -0.00   0.00
    37  16    -0.00  -0.00   0.00    -0.00  -0.00  -0.00    -0.00   0.00  -0.00
    38   8    -0.00   0.00   0.00     0.00   0.00   0.00    -0.00   0.00  -0.00
    39   8    -0.00   0.00  -0.00    -0.00   0.00  -0.00    -0.00  -0.00  -0.00
    40   8    -0.00   0.00  -0.00     0.00   0.00  -0.00    -0.00  -0.00  -0.00

 -------------------
 - Thermochemistry -
 -------------------
 Temperature   298.150 Kelvin.  Pressure   1.00000 Atm.
 Atom     1 has atomic number  6 and mass  12.00000
 Atom     2 has atomic number  6 and mass  12.00000
 Atom     3 has atomic number  6 and mass  12.00000
 Atom     4 has atomic number  6 and mass  12.00000
 Atom     5 has atomic number  6 and mass  12.00000
 Atom     6 has atomic number  6 and mass  12.00000
 Atom     7 has atomic number  6 and mass  12.00000
 Atom     8 has atomic number  6 and mass  12.00000
 Atom     9 has atomic number  1 and mass   1.00783
 Atom    10 has atomic number  6 and mass  12.00000
 Atom    11 has atomic number  6 and mass  12.00000
 Atom    12 has atomic number  1 and mass   1.00783
 Atom    13 has atomic number  1 and mass   1.00783
 Atom    14 has atomic number  7 and mass  14.00307
 Atom    15 has atomic number  7 and mass  14.00307
 Atom    16 has atomic number  1 and mass   1.00783
 Atom    17 has atomic number  6 and mass  12.00000
 Atom    18 has atomic number  6 and mass  12.00000
 Atom    19 has atomic number  6 and mass  12.00000
 Atom    20 has atomic number  6 and mass  12.00000
 Atom    21 has atomic number  1 and mass   1.00783
 Atom    22 has atomic number  6 and mass  12.00000
 Atom    23 has atomic number  1 and mass   1.00783
 Atom    24 has atomic number  6 and mass  12.00000
 Atom    25 has atomic number  1 and mass   1.00783
 Atom    26 has atomic number  1 and mass   1.00783
 Atom    27 has atomic number  7 and mass  14.00307
 Atom    28 has atomic number  1 and mass   1.00783
 Atom    29 has atomic number  1 and mass   1.00783
 Atom    30 has atomic number  8 and mass  15.99491
 Atom    31 has atomic number  8 and mass  15.99491
 Atom    32 has atomic number  1 and mass   1.00783
 Atom    33 has atomic number 16 and mass  31.97207
 Atom    34 has atomic number  8 and mass  15.99491
 Atom    35 has atomic number  8 and mass  15.99491
 Atom    36 has atomic number  8 and mass  15.99491
 Atom    37 has atomic number 16 and mass  31.97207
 Atom    38 has atomic number  8 and mass  15.99491
 Atom    39 has atomic number  8 and mass  15.99491
 Atom    40 has atomic number  8 and mass  15.99491
 Molecular mass:   436.99876 amu.
 Principal axes and moments of inertia in atomic units:
                           1         2         3
     Eigenvalues --  6015.06776********************
           X            0.99997  -0.00728  -0.00065
           Y            0.00728   0.99997   0.00047
           Z            0.00065  -0.00048   1.00000
 This molecule is an asymmetric top.
 Rotational symmetry number  1.
 Warning -- assumption of classical behavior for rotation
           may cause significant error
 Rotational temperatures (Kelvin)      0.01440     0.00307     0.00258
 Rotational constants (GHZ):           0.30004     0.06400     0.05385
 Zero-point vibrational energy     711634.9 (Joules/Mol)
                                  170.08483 (Kcal/Mol)
 Warning -- explicit consideration of  43 degrees of freedom as
           vibrations may cause significant error
 Vibrational temperatures:     25.75    39.75    50.08    69.35    77.78
          (Kelvin)             82.36   111.05   135.13   148.66   190.93
                              205.10   220.70   239.42   297.30   304.52
                              341.44   359.24   388.30   390.18   431.37
                              481.04   482.21   491.15   494.18   522.72
                              561.00   600.70   616.55   623.86   684.62
                              705.99   713.01   719.04   721.90   731.71
                              733.92   746.26   786.11   809.11   824.59
                              866.75   885.79   891.04   913.39   941.01
                              941.91   943.82   953.41  1030.92  1058.91
                             1062.55  1133.33  1171.38  1180.21  1202.65
                             1242.77  1249.10  1263.89  1275.64  1285.92
                             1308.15  1336.48  1341.00  1399.19  1438.86
                             1461.99  1467.62  1486.35  1487.64  1569.13
                             1619.48  1627.85  1663.70  1664.85  1670.99
                             1674.59  1683.37  1712.83  1724.03  1763.98
                             1790.77  1835.53  1893.36  1906.45  1923.15
                             1950.10  1956.19  1971.93  2027.25  2058.02
                             2075.07  2110.69  2153.76  2195.48  2251.79
                             2265.61  2314.29  2346.04  2384.98  2390.13
                             2397.79  2420.33  2443.94  4589.34  4595.23
                             4610.20  4634.37  4645.33  4647.88  4672.89
                             4717.91  4768.24  5170.83  5310.62
 
 Zero-point correction=                           0.271047 (Hartree/Particle)
 Thermal correction to Energy=                    0.295377
 Thermal correction to Enthalpy=                  0.296321
 Thermal correction to Gibbs Free Energy=         0.214940
 Sum of electronic and zero-point Energies=          -2178.563781
 Sum of electronic and thermal Energies=             -2178.539452
 Sum of electronic and thermal Enthalpies=           -2178.538507
 Sum of electronic and thermal Free Energies=        -2178.619888
 
                     E (Thermal)             CV                S
                      KCal/Mol        Cal/Mol-Kelvin    Cal/Mol-Kelvin
 Total                  185.352             93.980            171.280
 Electronic               0.000              0.000              0.000
 Translational            0.889              2.981             44.114
 Rotational               0.889              2.981             36.984
 Vibrational            183.574             88.018             90.183
 Vibration     1          0.593              1.986              6.855
 Vibration     2          0.593              1.984              5.993
 Vibration     3          0.594              1.983              5.535
 Vibration     4          0.595              1.978              4.890
 Vibration     5          0.596              1.976              4.663
 Vibration     6          0.596              1.975              4.550
 Vibration     7          0.599              1.964              3.961
 Vibration     8          0.603              1.954              3.577
 Vibration     9          0.605              1.947              3.391
 Vibration    10          0.613              1.921              2.906
 Vibration    11          0.616              1.911              2.769
 Vibration    12          0.619              1.899              2.630
 Vibration    13          0.624              1.884              2.476
 Vibration    14          0.641              1.830              2.073
 Vibration    15          0.643              1.823              2.029
 Vibration    16          0.656              1.784              1.823
 Vibration    17          0.662              1.763              1.733
 Vibration    18          0.674              1.729              1.597
 Vibration    19          0.675              1.726              1.589
 Vibration    20          0.692              1.674              1.418
 Vibration    21          0.716              1.607              1.239
 Vibration    22          0.716              1.605              1.235
 Vibration    23          0.721              1.593              1.206
 Vibration    24          0.722              1.589              1.196
 Vibration    25          0.737              1.548              1.108
 Vibration    26          0.758              1.492              1.000
 Vibration    27          0.781              1.432              0.900
 Vibration    28          0.790              1.408              0.863
 Vibration    29          0.794              1.397              0.847
 Vibration    30          0.832              1.304              0.721
 Vibration    31          0.846              1.271              0.682
 Vibration    32          0.851              1.260              0.669
 Vibration    33          0.855              1.251              0.659
 Vibration    34          0.857              1.246              0.654
 Vibration    35          0.864              1.231              0.637
 Vibration    36          0.865              1.228              0.633
 Vibration    37          0.874              1.209              0.613
 Vibration    38          0.902              1.148              0.552
 Vibration    39          0.918              1.113              0.519
 Vibration    40          0.929              1.089              0.498
 Vibration    41          0.961              1.027              0.446
 Vibration    42          0.975              0.999              0.424
 Vibration    43          0.979              0.991              0.418
                       Q            Log10(Q)             Ln(Q)
 Total Bot       0.136306D-98        -98.865485       -227.646193
 Total V=0       0.642047D+26         25.807567         59.424118
 Vib (Bot)       0.140658-114       -114.851836       -264.456126
 Vib (Bot)    1  0.115764D+02          1.063575          2.448972
 Vib (Bot)    2  0.749479D+01          0.874759          2.014208
 Vib (Bot)    3  0.594617D+01          0.774237          1.782747
 Vib (Bot)    4  0.428961D+01          0.632418          1.456195
 Vib (Bot)    5  0.382247D+01          0.582344          1.340896
 Vib (Bot)    6  0.360859D+01          0.557337          1.283316
 Vib (Bot)    7  0.266929D+01          0.426395          0.981811
 Vib (Bot)    8  0.218754D+01          0.339956          0.782778
 Vib (Bot)    9  0.198495D+01          0.297750          0.685596
 Vib (Bot)   10  0.153518D+01          0.186160          0.428649
 Vib (Bot)   11  0.142541D+01          0.153941          0.354463
 Vib (Bot)   12  0.132060D+01          0.120771          0.278085
 Vib (Bot)   13  0.121243D+01          0.083658          0.192630
 Vib (Bot)   14  0.962476D+00         -0.016610         -0.038246
 Vib (Bot)   15  0.937774D+00         -0.027902         -0.064246
 Vib (Bot)   16  0.827261D+00         -0.082357         -0.189635
 Vib (Bot)   17  0.781797D+00         -0.106906         -0.246160
 Vib (Bot)   18  0.716137D+00         -0.145004         -0.333883
 Vib (Bot)   19  0.712214D+00         -0.147390         -0.339377
 Vib (Bot)   20  0.634378D+00         -0.197652         -0.455110
 Vib (Bot)   21  0.557356D+00         -0.253867         -0.584551
 Vib (Bot)   22  0.555721D+00         -0.255143         -0.587488
 Vib (Bot)   23  0.543472D+00         -0.264823         -0.609777
 Vib (Bot)   24  0.539424D+00         -0.268070         -0.617254
 Vib (Bot)   25  0.503388D+00         -0.298097         -0.686393
 Vib (Bot)   26  0.460461D+00         -0.336807         -0.775528
 Vib (Bot)   27  0.421366D+00         -0.375341         -0.864254
 Vib (Bot)   28  0.407072D+00         -0.390329         -0.898765
 Vib (Bot)   29  0.400702D+00         -0.397179         -0.914538
 Vib (Bot)   30  0.352735D+00         -0.452551         -1.042038
 Vib (Bot)   31  0.337705D+00         -0.471463         -1.085583
 Vib (Bot)   32  0.332950D+00         -0.477620         -1.099762
 Vib (Bot)   33  0.328938D+00         -0.482886         -1.111885
 Vib (Bot)   34  0.327056D+00         -0.485377         -1.117623
 Vib (Bot)   35  0.320706D+00         -0.493892         -1.137229
 Vib (Bot)   36  0.319301D+00         -0.495800         -1.141621
 Vib (Bot)   37  0.311579D+00         -0.506432         -1.166103
 Vib (Bot)   38  0.288222D+00         -0.540274         -1.244026
 Vib (Bot)   39  0.275739D+00         -0.559502         -1.288301
 Vib (Bot)   40  0.267714D+00         -0.572329         -1.317836
 Vib (Bot)   41  0.247250D+00         -0.606864         -1.397357
 Vib (Bot)   42  0.238627D+00         -0.622281         -1.432855
 Vib (Bot)   43  0.236311D+00         -0.626516         -1.442606
 Vib (V=0)       0.662546D+10          9.821216         22.614185
 Vib (V=0)    1  0.120872D+02          1.082327          2.492149
 Vib (V=0)    2  0.801145D+01          0.903711          2.080871
 Vib (V=0)    3  0.646716D+01          0.810713          1.866736
 Vib (V=0)    4  0.481865D+01          0.682925          1.572494
 Vib (V=0)    5  0.435503D+01          0.638991          1.471331
 Vib (V=0)    6  0.414306D+01          0.617321          1.421435
 Vib (V=0)    7  0.321571D+01          0.507277          1.168049
 Vib (V=0)    8  0.274396D+01          0.438377          1.009401
 Vib (V=0)    9  0.254696D+01          0.406022          0.934900
 Vib (V=0)   10  0.211455D+01          0.325219          0.748844
 Vib (V=0)   11  0.201057D+01          0.303318          0.698416
 Vib (V=0)   12  0.191208D+01          0.281507          0.648193
 Vib (V=0)   13  0.181149D+01          0.258035          0.594148
 Vib (V=0)   14  0.158460D+01          0.199920          0.460333
 Vib (V=0)   15  0.156274D+01          0.193887          0.446442
 Vib (V=0)   16  0.146662D+01          0.166319          0.382963
 Vib (V=0)   17  0.142801D+01          0.154732          0.356283
 Vib (V=0)   18  0.137341D+01          0.137802          0.317300
 Vib (V=0)   19  0.137020D+01          0.136784          0.314957
 Vib (V=0)   20  0.130774D+01          0.116520          0.268297
 Vib (V=0)   21  0.124876D+01          0.096480          0.222153
 Vib (V=0)   22  0.124755D+01          0.096057          0.221179
 Vib (V=0)   23  0.123849D+01          0.092891          0.213890
 Vib (V=0)   24  0.123551D+01          0.091847          0.211485
 Vib (V=0)   25  0.120951D+01          0.082608          0.190213
 Vib (V=0)   26  0.117972D+01          0.071780          0.165280
 Vib (V=0)   27  0.115387D+01          0.062158          0.143124
 Vib (V=0)   28  0.114475D+01          0.058712          0.135190
 Vib (V=0)   29  0.114075D+01          0.057191          0.131687
 Vib (V=0)   30  0.111190D+01          0.046066          0.106071
 Vib (V=0)   31  0.110336D+01          0.042718          0.098361
 Vib (V=0)   32  0.110071D+01          0.041674          0.095958
 Vib (V=0)   33  0.109850D+01          0.040799          0.093944
 Vib (V=0)   34  0.109747D+01          0.040391          0.093004
 Vib (V=0)   35  0.109401D+01          0.039023          0.089853
 Vib (V=0)   36  0.109326D+01          0.038722          0.089161
 Vib (V=0)   37  0.108914D+01          0.037082          0.085385
 Vib (V=0)   38  0.107712D+01          0.032266          0.074294
 Vib (V=0)   39  0.107099D+01          0.029786          0.068585
 Vib (V=0)   40  0.106716D+01          0.028230          0.065001
 Vib (V=0)   41  0.105779D+01          0.024400          0.056184
 Vib (V=0)   42  0.105402D+01          0.022851          0.052615
 Vib (V=0)   43  0.105303D+01          0.022441          0.051672
 Electronic      0.100000D+01          0.000000          0.000000
 Translational   0.359066D+09          8.555174         19.699017
 Rotational      0.269884D+08          7.431177         17.110917
 ***** Axes restored to original set *****
 -------------------------------------------------------------------
 Center     Atomic                   Forces (Hartrees/Bohr)
 Number     Number              X              Y              Z
 -------------------------------------------------------------------
      1        6           0.000006998   -0.000002293    0.000000255
      2        6           0.000004966   -0.000001663   -0.000002266
      3        6          -0.000006211    0.000006196    0.000000982
      4        6          -0.000003209    0.000004062   -0.000001779
      5        6           0.000004190   -0.000005128    0.000001377
      6        6          -0.000003735    0.000000897   -0.000000136
      7        6          -0.000007732   -0.000006521   -0.000000919
      8        6           0.000002622   -0.000007269   -0.000004188
      9        1          -0.000001348    0.000001673   -0.000001168
     10        6          -0.000000355    0.000006887    0.000000177
     11        6           0.000009580    0.000005239    0.000000781
     12        1          -0.000001028    0.000000661   -0.000000031
     13        1          -0.000003065   -0.000004587    0.000000070
     14        7          -0.000008279    0.000011541    0.000004384
     15        7          -0.000003154   -0.000014744   -0.000000742
     16        1           0.000005463    0.000004602   -0.000000579
     17        6          -0.000009327    0.000000731    0.000001668
     18        6           0.000003971    0.000005912    0.000002160
     19        6           0.000010297   -0.000000887   -0.000003518
     20        6           0.000005084   -0.000005214   -0.000000874
     21        1          -0.000001588   -0.000003268    0.000000333
     22        6          -0.000002959   -0.000001366    0.000003338
     23        1           0.000000971    0.000000373    0.000002593
     24        6          -0.000010915    0.000003095    0.000002763
     25        1          -0.000002350    0.000003415    0.000001266
     26        1          -0.000000262   -0.000000244    0.000000824
     27        7           0.000005588    0.000007175    0.000000018
     28        1           0.000003396   -0.000004159   -0.000000190
     29        1           0.000000758   -0.000000456    0.000003200
     30        8           0.000001435   -0.000001799   -0.000002175
     31        8           0.000005635   -0.000000945   -0.000000214
     32        1          -0.000002339   -0.000001339   -0.000001616
     33       16          -0.000003414   -0.000006732    0.000004451
     34        8           0.000000610    0.000001032   -0.000006861
     35        8           0.000000427    0.000001480   -0.000001008
     36        8           0.000002383    0.000000941   -0.000002755
     37       16          -0.000003133   -0.000001356    0.000002046
     38        8          -0.000003171    0.000000537   -0.000006126
     39        8           0.000004772    0.000000675   -0.000000426
     40        8          -0.000001573    0.000002845    0.000004888
 -------------------------------------------------------------------
 Cartesian Forces:  Max     0.000014744 RMS     0.000004182
 FormGI is forming the generalized inverse of G from B-inverse, IUseBI=4.

 GradGradGradGradGradGradGradGradGradGradGradGradGradGradGradGradGradGrad
 Berny optimization.
 Internal  Forces:  Max     0.000011072 RMS     0.000002566
 Search for a local minimum.
 Step number   1 out of a maximum of    2
 All quantities printed in internal units (Hartrees-Bohrs-Radians)
 Second derivative matrix not updated -- analytic derivatives used.
 ITU=  0
     Eigenvalues ---    0.00118   0.00383   0.00483   0.00593   0.01109
     Eigenvalues ---    0.01198   0.01221   0.01246   0.01524   0.01602
     Eigenvalues ---    0.01608   0.01728   0.01813   0.01827   0.01898
     Eigenvalues ---    0.01939   0.02045   0.02079   0.02173   0.02219
     Eigenvalues ---    0.02314   0.02326   0.02370   0.02518   0.02771
     Eigenvalues ---    0.02792   0.02872   0.02914   0.03127   0.03975
     Eigenvalues ---    0.04107   0.06090   0.10601   0.11020   0.11214
     Eigenvalues ---    0.11405   0.11465   0.11852   0.11924   0.12528
     Eigenvalues ---    0.12756   0.12986   0.14662   0.15916   0.16209
     Eigenvalues ---    0.16554   0.16643   0.16653   0.17175   0.17255
     Eigenvalues ---    0.17750   0.18372   0.18941   0.19423   0.19700
     Eigenvalues ---    0.19966   0.20072   0.20364   0.20529   0.20573
     Eigenvalues ---    0.21090   0.21627   0.21890   0.21978   0.22544
     Eigenvalues ---    0.23117   0.23762   0.24883   0.26337   0.26949
     Eigenvalues ---    0.27874   0.29245   0.30325   0.31609   0.31833
     Eigenvalues ---    0.34278   0.35896   0.35981   0.36094   0.36321
     Eigenvalues ---    0.36592   0.36690   0.36920   0.37030   0.37666
     Eigenvalues ---    0.37984   0.38521   0.41367   0.41856   0.42500
     Eigenvalues ---    0.45397   0.46298   0.46922   0.47251   0.47362
     Eigenvalues ---    0.47486   0.47537   0.47777   0.48740   0.49901
     Eigenvalues ---    0.50328   0.50351   0.50616   0.50919   0.51248
     Eigenvalues ---    0.53399   0.55142   0.55381   0.57405   0.57812
     Eigenvalues ---    0.62033   0.66430   0.76506   1.11392
 Angle between quadratic step and forces=  80.28 degrees.
 Linear search not attempted -- first point.
 Iteration  1 RMS(Cart)=  0.00038698 RMS(Int)=  0.00000017
 Iteration  2 RMS(Cart)=  0.00000018 RMS(Int)=  0.00000000
 Variable       Old X    -DE/DX   Delta X   Delta X   Delta X     New X
                                 (Linear)    (Quad)   (Total)
    R1        2.73411   0.00000   0.00000   0.00001   0.00001   2.73413
    R2        2.73944   0.00000   0.00000   0.00001   0.00001   2.73945
    R3        2.51635  -0.00000   0.00000  -0.00001  -0.00001   2.51634
    R4        2.73968   0.00001   0.00000   0.00002   0.00002   2.73970
    R5        2.39266   0.00000   0.00000  -0.00000  -0.00000   2.39265
    R6        2.66375  -0.00000   0.00000  -0.00001  -0.00001   2.66375
    R7        2.67802   0.00000   0.00000   0.00002   0.00002   2.67804
    R8        2.72244  -0.00000   0.00000  -0.00001  -0.00001   2.72244
    R9        2.64285  -0.00000   0.00000  -0.00000  -0.00000   2.64285
   R10        2.54267  -0.00000   0.00000  -0.00001  -0.00001   2.54266
   R11        2.04298   0.00000   0.00000   0.00001   0.00001   2.04299
   R12        3.42332   0.00000   0.00000   0.00000   0.00000   3.42333
   R13        2.61638  -0.00000   0.00000  -0.00002  -0.00002   2.61637
   R14        2.53712   0.00000   0.00000   0.00001   0.00001   2.53712
   R15        2.60759  -0.00000   0.00000  -0.00002  -0.00002   2.60757
   R16        2.04337   0.00000   0.00000   0.00000   0.00000   2.04338
   R17        2.62746   0.00000   0.00000   0.00001   0.00001   2.62747
   R18        3.40685  -0.00000   0.00000   0.00000   0.00000   3.40685
   R19        2.04490   0.00001   0.00000   0.00002   0.00002   2.04491
   R20        2.41844   0.00001   0.00000   0.00002   0.00002   2.41847
   R21        1.94607  -0.00001   0.00000  -0.00002  -0.00002   1.94605
   R22        2.66095   0.00000   0.00000  -0.00001  -0.00001   2.66094
   R23        2.63019   0.00000   0.00000   0.00001   0.00001   2.63019
   R24        2.63047   0.00000   0.00000   0.00001   0.00001   2.63048
   R25        2.61194   0.00000   0.00000   0.00000   0.00000   2.61194
   R26        2.04855   0.00000   0.00000   0.00001   0.00001   2.04856
   R27        2.60997  -0.00000   0.00000  -0.00001  -0.00001   2.60996
   R28        2.04224  -0.00000   0.00000   0.00000   0.00000   2.04224
   R29        2.64400  -0.00000   0.00000  -0.00000  -0.00000   2.64400
   R30        2.04783  -0.00000   0.00000  -0.00001  -0.00001   2.04782
   R31        2.64836  -0.00000   0.00000  -0.00001  -0.00001   2.64835
   R32        2.04828  -0.00000   0.00000  -0.00000  -0.00000   2.04828
   R33        2.61676   0.00001   0.00000   0.00001   0.00001   2.61678
   R34        1.90671   0.00001   0.00000   0.00001   0.00001   1.90672
   R35        1.90669  -0.00000   0.00000  -0.00000  -0.00000   1.90668
   R36        1.86843  -0.00000   0.00000  -0.00001  -0.00001   1.86842
   R37        2.79761  -0.00001   0.00000  -0.00001  -0.00001   2.79759
   R38        2.79212   0.00000   0.00000   0.00001   0.00001   2.79212
   R39        2.79596  -0.00000   0.00000   0.00001   0.00001   2.79597
   R40        2.79405  -0.00001   0.00000  -0.00001  -0.00001   2.79404
   R41        2.79630  -0.00000   0.00000  -0.00001  -0.00001   2.79629
   R42        2.79410  -0.00000   0.00000  -0.00001  -0.00001   2.79409
    A1        2.07572  -0.00000   0.00000  -0.00001  -0.00001   2.07571
    A2        2.14695  -0.00000   0.00000   0.00001   0.00001   2.14696
    A3        2.06051   0.00000   0.00000   0.00000   0.00000   2.06051
    A4        2.07207  -0.00000   0.00000  -0.00000  -0.00000   2.07206
    A5        2.10811  -0.00000   0.00000   0.00000   0.00000   2.10811
    A6        2.10301   0.00000   0.00000   0.00000   0.00000   2.10301
    A7        2.09477  -0.00000   0.00000   0.00000   0.00000   2.09477
    A8        2.10473  -0.00000   0.00000  -0.00001  -0.00001   2.10472
    A9        2.08369   0.00000   0.00000   0.00001   0.00001   2.08370
   A10        2.08670  -0.00000   0.00000  -0.00000  -0.00000   2.08669
   A11        2.09148  -0.00000   0.00000  -0.00000  -0.00000   2.09147
   A12        2.10501   0.00000   0.00000   0.00001   0.00001   2.10502
   A13        2.12452   0.00000   0.00000   0.00001   0.00001   2.12453
   A14        2.07231  -0.00000   0.00000  -0.00001  -0.00001   2.07231
   A15        2.08635  -0.00000   0.00000  -0.00000  -0.00000   2.08635
   A16        2.11259   0.00000   0.00000   0.00000   0.00000   2.11259
   A17        2.11919   0.00000   0.00000   0.00000   0.00000   2.11919
   A18        2.05140  -0.00000   0.00000  -0.00000  -0.00000   2.05140
   A19        2.09431  -0.00000   0.00000  -0.00002  -0.00002   2.09430
   A20        2.12001   0.00000   0.00000  -0.00000  -0.00000   2.12001
   A21        2.06886   0.00000   0.00000   0.00002   0.00002   2.06888
   A22        2.08429   0.00000   0.00000   0.00001   0.00001   2.08430
   A23        2.10255  -0.00000   0.00000   0.00001   0.00001   2.10256
   A24        2.09633  -0.00000   0.00000  -0.00001  -0.00001   2.09632
   A25        2.12696  -0.00000   0.00000  -0.00001  -0.00001   2.12696
   A26        2.09070   0.00000   0.00000   0.00002   0.00002   2.09072
   A27        2.06544  -0.00000   0.00000  -0.00001  -0.00001   2.06543
   A28        2.08564   0.00000   0.00000   0.00001   0.00001   2.08565
   A29        2.07835  -0.00000   0.00000  -0.00001  -0.00001   2.07833
   A30        2.11919  -0.00000   0.00000   0.00000   0.00000   2.11919
   A31        2.11541  -0.00001   0.00000  -0.00002  -0.00002   2.11539
   A32        2.05333  -0.00000   0.00000   0.00001   0.00001   2.05334
   A33        2.12812   0.00001   0.00000   0.00001   0.00001   2.12813
   A34        2.10173  -0.00000   0.00000  -0.00002  -0.00002   2.10171
   A35        2.05730  -0.00000   0.00000  -0.00000  -0.00000   2.05730
   A36        2.13631   0.00001   0.00000   0.00003   0.00003   2.13634
   A37        2.08958  -0.00001   0.00000  -0.00003  -0.00003   2.08955
   A38        2.09973   0.00000   0.00000   0.00002   0.00002   2.09975
   A39        2.09493  -0.00000   0.00000  -0.00000  -0.00000   2.09493
   A40        2.08852  -0.00000   0.00000  -0.00002  -0.00002   2.08850
   A41        2.09192   0.00000   0.00000   0.00001   0.00001   2.09193
   A42        2.09244  -0.00000   0.00000   0.00000   0.00000   2.09245
   A43        2.09882  -0.00000   0.00000  -0.00001  -0.00001   2.09881
   A44        2.10608  -0.00000   0.00000  -0.00001  -0.00001   2.10607
   A45        2.08878  -0.00000   0.00000  -0.00001  -0.00001   2.08878
   A46        2.08832   0.00000   0.00000   0.00002   0.00002   2.08834
   A47        2.11371   0.00000   0.00000   0.00001   0.00001   2.11372
   A48        2.08458  -0.00000   0.00000  -0.00000  -0.00000   2.08458
   A49        2.08489  -0.00000   0.00000  -0.00000  -0.00000   2.08489
   A50        2.06535  -0.00000   0.00000  -0.00000  -0.00000   2.06535
   A51        2.10905   0.00000   0.00000   0.00001   0.00001   2.10906
   A52        2.10787  -0.00000   0.00000  -0.00001  -0.00001   2.10787
   A53        2.03018   0.00000   0.00000   0.00002   0.00002   2.03020
   A54        2.03162   0.00000   0.00000   0.00002   0.00002   2.03165
   A55        1.96792  -0.00000   0.00000   0.00002   0.00002   1.96794
   A56        1.86389   0.00000   0.00000   0.00001   0.00001   1.86390
   A57        1.83880   0.00000   0.00000   0.00005   0.00005   1.83884
   A58        1.84731  -0.00000   0.00000  -0.00001  -0.00001   1.84730
   A59        1.83959  -0.00000   0.00000  -0.00005  -0.00005   1.83954
   A60        1.97545   0.00000   0.00000   0.00002   0.00002   1.97547
   A61        1.96909   0.00000   0.00000   0.00001   0.00001   1.96909
   A62        1.97764   0.00000   0.00000  -0.00002  -0.00002   1.97762
   A63        1.85460   0.00000   0.00000  -0.00001  -0.00001   1.85459
   A64        1.82752   0.00001   0.00000   0.00002   0.00002   1.82754
   A65        1.85487   0.00000   0.00000   0.00002   0.00002   1.85489
   A66        1.96280  -0.00000   0.00000  -0.00000  -0.00000   1.96279
   A67        1.98678  -0.00000   0.00000  -0.00001  -0.00001   1.98677
   A68        1.96271  -0.00001   0.00000  -0.00001  -0.00001   1.96270
    D1        0.00424  -0.00000   0.00000  -0.00015  -0.00015   0.00409
    D2       -3.13920  -0.00000   0.00000  -0.00011  -0.00011  -3.13931
    D3       -3.13399  -0.00000   0.00000  -0.00015  -0.00015  -3.13414
    D4        0.00575  -0.00000   0.00000  -0.00011  -0.00011   0.00564
    D5       -0.00397   0.00000   0.00000   0.00001   0.00001  -0.00395
    D6        3.13819   0.00000   0.00000   0.00001   0.00001   3.13820
    D7        3.13443   0.00000   0.00000   0.00001   0.00001   3.13444
    D8       -0.00660   0.00000   0.00000   0.00001   0.00001  -0.00659
    D9       -0.00190   0.00000   0.00000   0.00010   0.00010  -0.00180
   D10       -3.14016   0.00000   0.00000   0.00010   0.00010  -3.14005
   D11       -0.00093   0.00000   0.00000   0.00020   0.00020  -0.00073
   D12        3.13788   0.00000   0.00000   0.00020   0.00020   3.13807
   D13       -3.14068   0.00000   0.00000   0.00016   0.00016  -3.14052
   D14       -0.00187   0.00000   0.00000   0.00016   0.00016  -0.00172
   D15       -0.00275  -0.00000   0.00000  -0.00012  -0.00012  -0.00287
   D16        3.13749  -0.00000   0.00000  -0.00009  -0.00009   3.13740
   D17        3.14159  -0.00000   0.00000  -0.00011  -0.00011   3.14148
   D18       -0.00135  -0.00000   0.00000  -0.00009  -0.00009  -0.00143
   D19       -3.13655  -0.00000   0.00000  -0.00000  -0.00000  -3.13655
   D20        0.00234  -0.00000   0.00000   0.00002   0.00002   0.00236
   D21        0.00227  -0.00000   0.00000  -0.00001  -0.00001   0.00227
   D22        3.14117  -0.00000   0.00000   0.00002   0.00002   3.14118
   D23        0.00319  -0.00000   0.00000  -0.00002  -0.00002   0.00317
   D24       -3.13877  -0.00000   0.00000  -0.00000  -0.00000  -3.13878
   D25       -3.13705  -0.00000   0.00000  -0.00005  -0.00005  -3.13710
   D26        0.00418  -0.00000   0.00000  -0.00003  -0.00003   0.00414
   D27       -0.00070   0.00000   0.00000   0.00009   0.00009  -0.00061
   D28       -3.13663   0.00000   0.00000   0.00001   0.00001  -3.13662
   D29        3.13953   0.00000   0.00000   0.00012   0.00012   3.13965
   D30        0.00360   0.00000   0.00000   0.00004   0.00004   0.00364
   D31        0.00024   0.00000   0.00000   0.00007   0.00007   0.00031
   D32        3.14129   0.00000   0.00000   0.00007   0.00007   3.14136
   D33       -3.14099   0.00000   0.00000   0.00005   0.00005  -3.14093
   D34        0.00006   0.00000   0.00000   0.00006   0.00006   0.00012
   D35       -1.05730   0.00000   0.00000  -0.00003  -0.00003  -1.05733
   D36       -3.13790  -0.00000   0.00000  -0.00003  -0.00003  -3.13794
   D37        1.06465  -0.00000   0.00000  -0.00004  -0.00004   1.06461
   D38        2.08484   0.00000   0.00000  -0.00003  -0.00003   2.08481
   D39        0.00424  -0.00000   0.00000  -0.00003  -0.00003   0.00420
   D40       -2.07640  -0.00000   0.00000  -0.00004  -0.00004  -2.07644
   D41       -0.00114   0.00000   0.00000   0.00010   0.00010  -0.00104
   D42        3.13482   0.00000   0.00000   0.00008   0.00008   3.13490
   D43       -3.14011   0.00000   0.00000   0.00007   0.00007  -3.14003
   D44       -0.00415   0.00000   0.00000   0.00006   0.00006  -0.00409
   D45       -0.00091  -0.00000   0.00000  -0.00012  -0.00012  -0.00103
   D46        3.13802  -0.00000   0.00000  -0.00010  -0.00010   3.13793
   D47        0.00190   0.00000   0.00000   0.00001   0.00001   0.00190
   D48        3.12937   0.00000   0.00000   0.00028   0.00028   3.12965
   D49        3.13785   0.00000   0.00000   0.00008   0.00008   3.13793
   D50       -0.01787   0.00000   0.00000   0.00035   0.00035  -0.01752
   D51       -0.00097  -0.00000   0.00000  -0.00010  -0.00010  -0.00107
   D52       -3.13679  -0.00000   0.00000  -0.00008  -0.00008  -3.13687
   D53       -3.12864  -0.00000   0.00000  -0.00037  -0.00037  -3.12901
   D54        0.01873  -0.00000   0.00000  -0.00035  -0.00035   0.01838
   D55       -1.97094  -0.00000   0.00000  -0.00135  -0.00135  -1.97229
   D56        0.12614  -0.00000   0.00000  -0.00131  -0.00131   0.12483
   D57        2.22612  -0.00000   0.00000  -0.00135  -0.00135   2.22476
   D58        1.15702  -0.00000   0.00000  -0.00108  -0.00108   1.15594
   D59       -3.02908   0.00000   0.00000  -0.00105  -0.00105  -3.03012
   D60       -0.92910  -0.00000   0.00000  -0.00109  -0.00109  -0.93019
   D61       -0.00113   0.00000   0.00000  -0.00000  -0.00000  -0.00113
   D62        3.13669   0.00000   0.00000  -0.00002  -0.00002   3.13667
   D63       -3.12940   0.00000   0.00000   0.00004   0.00004  -3.12936
   D64        0.00934   0.00000   0.00000   0.00001   0.00001   0.00935
   D65        0.00832  -0.00000   0.00000   0.00002   0.00002   0.00834
   D66       -3.13613  -0.00000   0.00000  -0.00000  -0.00000  -3.13614
   D67        3.13958  -0.00000   0.00000  -0.00004  -0.00004   3.13955
   D68        0.00044  -0.00000   0.00000  -0.00002  -0.00002   0.00042
   D69        0.00077  -0.00000   0.00000  -0.00001  -0.00001   0.00076
   D70       -3.13838   0.00000   0.00000   0.00001   0.00001  -3.13837
   D71       -3.13966  -0.00000   0.00000   0.00001   0.00001  -3.13965
   D72        0.00063   0.00000   0.00000   0.00005   0.00005   0.00068
   D73       -0.00097  -0.00000   0.00000  -0.00001  -0.00001  -0.00099
   D74        3.13931   0.00000   0.00000   0.00003   0.00003   3.13934
   D75       -0.00129   0.00000   0.00000   0.00002   0.00002  -0.00127
   D76        3.14098   0.00000   0.00000   0.00000   0.00000   3.14099
   D77        3.13786   0.00000   0.00000   0.00000   0.00000   3.13786
   D78       -0.00305  -0.00000   0.00000  -0.00001  -0.00001  -0.00306
   D79        0.00171   0.00000   0.00000   0.00003   0.00003   0.00175
   D80       -3.13975   0.00000   0.00000   0.00000   0.00000  -3.13975
   D81       -3.13857  -0.00000   0.00000  -0.00001  -0.00001  -3.13858
   D82        0.00315  -0.00000   0.00000  -0.00004  -0.00004   0.00311
   D83        0.00197  -0.00000   0.00000  -0.00000  -0.00000   0.00197
   D84        3.09802  -0.00000   0.00000   0.00001   0.00001   3.09803
   D85       -3.14030   0.00000   0.00000   0.00001   0.00001  -3.14029
   D86       -0.04425   0.00000   0.00000   0.00002   0.00002  -0.04423
   D87       -0.00219  -0.00000   0.00000  -0.00002  -0.00002  -0.00221
   D88       -3.09828  -0.00000   0.00000  -0.00003  -0.00003  -3.09831
   D89        3.13927   0.00000   0.00000   0.00001   0.00001   3.13928
   D90        0.04319  -0.00000   0.00000  -0.00000  -0.00000   0.04319
   D91        0.39870  -0.00000   0.00000   0.00002   0.00002   0.39872
   D92        2.78396   0.00000   0.00000   0.00010   0.00010   2.78406
   D93       -2.78955  -0.00000   0.00000   0.00003   0.00003  -2.78952
   D94       -0.40428   0.00000   0.00000   0.00011   0.00011  -0.40417
         Item               Value     Threshold  Converged?
 Maximum Force            0.000011     0.000450     YES
 RMS     Force            0.000003     0.000300     YES
 Maximum Displacement     0.002501     0.001800     NO 
 RMS     Displacement     0.000387     0.001200     YES
 Predicted change in Energy=-9.649462D-09
                           ----------------------------
                           ! Non-Optimized Parameters !
                           ! (Angstroms and Degrees)  !
 --------------------------                            --------------------------
 ! Name  Definition              Value          Derivative Info.                !
 --------------------------------------------------------------------------------
 ! R1    R(1,2)                  1.4468         -DE/DX =    0.0                 !
 ! R2    R(1,6)                  1.4497         -DE/DX =    0.0                 !
 ! R3    R(1,14)                 1.3316         -DE/DX =    0.0                 !
 ! R4    R(2,3)                  1.4498         -DE/DX =    0.0                 !
 ! R5    R(2,30)                 1.2661         -DE/DX =    0.0                 !
 ! R6    R(3,4)                  1.4096         -DE/DX =    0.0                 !
 ! R7    R(3,7)                  1.4172         -DE/DX =    0.0                 !
 ! R8    R(4,5)                  1.4407         -DE/DX =    0.0                 !
 ! R9    R(4,8)                  1.3985         -DE/DX =    0.0                 !
 ! R10   R(5,6)                  1.3455         -DE/DX =    0.0                 !
 ! R11   R(5,9)                  1.0811         -DE/DX =    0.0                 !
 ! R12   R(6,37)                 1.8115         -DE/DX =    0.0                 !
 ! R13   R(7,11)                 1.3845         -DE/DX =    0.0                 !
 ! R14   R(7,31)                 1.3426         -DE/DX =    0.0                 !
 ! R15   R(8,10)                 1.3799         -DE/DX =    0.0                 !
 ! R16   R(8,12)                 1.0813         -DE/DX =    0.0                 !
 ! R17   R(10,11)                1.3904         -DE/DX =    0.0                 !
 ! R18   R(10,33)                1.8028         -DE/DX =    0.0                 !
 ! R19   R(11,13)                1.0821         -DE/DX =    0.0                 !
 ! R20   R(14,15)                1.2798         -DE/DX =    0.0                 !
 ! R21   R(15,16)                1.0298         -DE/DX =    0.0                 !
 ! R22   R(15,17)                1.4081         -DE/DX =    0.0                 !
 ! R23   R(17,18)                1.3918         -DE/DX =    0.0                 !
 ! R24   R(17,19)                1.392          -DE/DX =    0.0                 !
 ! R25   R(18,20)                1.3822         -DE/DX =    0.0                 !
 ! R26   R(18,21)                1.0841         -DE/DX =    0.0                 !
 ! R27   R(19,22)                1.3811         -DE/DX =    0.0                 !
 ! R28   R(19,23)                1.0807         -DE/DX =    0.0                 !
 ! R29   R(20,24)                1.3991         -DE/DX =    0.0                 !
 ! R30   R(20,25)                1.0837         -DE/DX =    0.0                 !
 ! R31   R(22,24)                1.4014         -DE/DX =    0.0                 !
 ! R32   R(22,26)                1.0839         -DE/DX =    0.0                 !
 ! R33   R(24,27)                1.3847         -DE/DX =    0.0                 !
 ! R34   R(27,28)                1.009          -DE/DX =    0.0                 !
 ! R35   R(27,29)                1.009          -DE/DX =    0.0                 !
 ! R36   R(31,32)                0.9887         -DE/DX =    0.0                 !
 ! R37   R(33,34)                1.4804         -DE/DX =    0.0                 !
 ! R38   R(33,35)                1.4775         -DE/DX =    0.0                 !
 ! R39   R(33,36)                1.4796         -DE/DX =    0.0                 !
 ! R40   R(37,38)                1.4785         -DE/DX =    0.0                 !
 ! R41   R(37,39)                1.4797         -DE/DX =    0.0                 !
 ! R42   R(37,40)                1.4786         -DE/DX =    0.0                 !
 ! A1    A(2,1,6)              118.9296         -DE/DX =    0.0                 !
 ! A2    A(2,1,14)             123.0115         -DE/DX =    0.0                 !
 ! A3    A(6,1,14)             118.0586         -DE/DX =    0.0                 !
 ! A4    A(1,2,3)              118.7205         -DE/DX =    0.0                 !
 ! A5    A(1,2,30)             120.7859         -DE/DX =    0.0                 !
 ! A6    A(3,2,30)             120.4935         -DE/DX =    0.0                 !
 ! A7    A(2,3,4)              120.0213         -DE/DX =    0.0                 !
 ! A8    A(2,3,7)              120.5914         -DE/DX =    0.0                 !
 ! A9    A(4,3,7)              119.3871         -DE/DX =    0.0                 !
 ! A10   A(3,4,5)              119.5587         -DE/DX =    0.0                 !
 ! A11   A(3,4,8)              119.8326         -DE/DX =    0.0                 !
 ! A12   A(5,4,8)              120.6087         -DE/DX =    0.0                 !
 ! A13   A(4,5,6)              121.7267         -DE/DX =    0.0                 !
 ! A14   A(4,5,9)              118.7344         -DE/DX =    0.0                 !
 ! A15   A(6,5,9)              119.5389         -DE/DX =    0.0                 !
 ! A16   A(1,6,5)              121.0425         -DE/DX =    0.0                 !
 ! A17   A(1,6,37)             121.4209         -DE/DX =    0.0                 !
 ! A18   A(5,6,37)             117.5366         -DE/DX =    0.0                 !
 ! A19   A(3,7,11)             119.9944         -DE/DX =    0.0                 !
 ! A20   A(3,7,31)             121.4676         -DE/DX =    0.0                 !
 ! A21   A(11,7,31)            118.5379         -DE/DX =    0.0                 !
 ! A22   A(4,8,10)             119.4213         -DE/DX =    0.0                 !
 ! A23   A(4,8,12)             120.4677         -DE/DX =    0.0                 !
 ! A24   A(10,8,12)            120.1102         -DE/DX =    0.0                 !
 ! A25   A(8,10,11)            121.8657         -DE/DX =    0.0                 !
 ! A26   A(8,10,33)            119.7895         -DE/DX =    0.0                 !
 ! A27   A(11,10,33)           118.3403         -DE/DX =    0.0                 !
 ! A28   A(7,11,10)            119.4988         -DE/DX =    0.0                 !
 ! A29   A(7,11,13)            119.0798         -DE/DX =    0.0                 !
 ! A30   A(10,11,13)           121.4205         -DE/DX =    0.0                 !
 ! A31   A(1,14,15)            121.203          -DE/DX =    0.0                 !
 ! A32   A(14,15,16)           117.6477         -DE/DX =    0.0                 !
 ! A33   A(14,15,17)           121.9326         -DE/DX =    0.0                 !
 ! A34   A(16,15,17)           120.4193         -DE/DX =    0.0                 !
 ! A35   A(15,17,18)           117.8744         -DE/DX =    0.0                 !
 ! A36   A(15,17,19)           122.4031         -DE/DX =    0.0                 !
 ! A37   A(18,17,19)           119.7223         -DE/DX =    0.0                 !
 ! A38   A(17,18,20)           120.3069         -DE/DX =    0.0                 !
 ! A39   A(17,18,21)           120.0305         -DE/DX =    0.0                 !
 ! A40   A(20,18,21)           119.6624         -DE/DX =    0.0                 !
 ! A41   A(17,19,22)           119.8588         -DE/DX =    0.0                 !
 ! A42   A(17,19,23)           119.8883         -DE/DX =    0.0                 !
 ! A43   A(22,19,23)           120.2529         -DE/DX =    0.0                 !
 ! A44   A(18,20,24)           120.6688         -DE/DX =    0.0                 !
 ! A45   A(18,20,25)           119.678          -DE/DX =    0.0                 !
 ! A46   A(24,20,25)           119.6531         -DE/DX =    0.0                 !
 ! A47   A(19,22,24)           121.1073         -DE/DX =    0.0                 !
 ! A48   A(19,22,26)           119.4374         -DE/DX =    0.0                 !
 ! A49   A(24,22,26)           119.4554         -DE/DX =    0.0                 !
 ! A50   A(20,24,22)           118.3358         -DE/DX =    0.0                 !
 ! A51   A(20,24,27)           120.8401         -DE/DX =    0.0                 !
 ! A52   A(22,24,27)           120.7719         -DE/DX =    0.0                 !
 ! A53   A(24,27,28)           116.3221         -DE/DX =    0.0                 !
 ! A54   A(24,27,29)           116.4048         -DE/DX =    0.0                 !
 ! A55   A(28,27,29)           112.7545         -DE/DX =    0.0                 !
 ! A56   A(7,31,32)            106.7935         -DE/DX =    0.0                 !
 ! A57   A(10,33,34)           105.358          -DE/DX =    0.0                 !
 ! A58   A(10,33,35)           105.8426         -DE/DX =    0.0                 !
 ! A59   A(10,33,36)           105.3978         -DE/DX =    0.0                 !
 ! A60   A(34,33,35)           113.186          -DE/DX =    0.0                 !
 ! A61   A(34,33,36)           112.8207         -DE/DX =    0.0                 !
 ! A62   A(35,33,36)           113.3094         -DE/DX =    0.0                 !
 ! A63   A(6,37,38)            106.2599         -DE/DX =    0.0                 !
 ! A64   A(6,37,39)            104.7105         -DE/DX =    0.0                 !
 ! A65   A(6,37,40)            106.2774         -DE/DX =    0.0                 !
 ! A66   A(38,37,39)           112.4598         -DE/DX =    0.0                 !
 ! A67   A(38,37,40)           113.8335         -DE/DX =    0.0                 !
 ! A68   A(39,37,40)           112.4545         -DE/DX =    0.0                 !
 ! D1    D(6,1,2,3)              0.2344         -DE/DX =    0.0                 !
 ! D2    D(6,1,2,30)          -179.8693         -DE/DX =    0.0                 !
 ! D3    D(14,1,2,3)          -179.5729         -DE/DX =    0.0                 !
 ! D4    D(14,1,2,30)            0.3233         -DE/DX =    0.0                 !
 ! D5    D(2,1,6,5)             -0.2265         -DE/DX =    0.0                 !
 ! D6    D(2,1,6,37)           179.8058         -DE/DX =    0.0                 !
 ! D7    D(14,1,6,5)           179.5904         -DE/DX =    0.0                 !
 ! D8    D(14,1,6,37)           -0.3773         -DE/DX =    0.0                 !
 ! D9    D(2,1,14,15)           -0.1029         -DE/DX =    0.0                 !
 ! D10   D(6,1,14,15)         -179.9119         -DE/DX =    0.0                 !
 ! D11   D(1,2,3,4)             -0.0418         -DE/DX =    0.0                 !
 ! D12   D(1,2,3,7)            179.7983         -DE/DX =    0.0                 !
 ! D13   D(30,2,3,4)          -179.9384         -DE/DX =    0.0                 !
 ! D14   D(30,2,3,7)            -0.0983         -DE/DX =    0.0                 !
 ! D15   D(2,3,4,5)             -0.1647         -DE/DX =    0.0                 !
 ! D16   D(2,3,4,8)            179.7598         -DE/DX =    0.0                 !
 ! D17   D(7,3,4,5)            179.9933         -DE/DX =    0.0                 !
 ! D18   D(7,3,4,8)             -0.0822         -DE/DX =    0.0                 !
 ! D19   D(2,3,7,11)          -179.7112         -DE/DX =    0.0                 !
 ! D20   D(2,3,7,31)             0.1355         -DE/DX =    0.0                 !
 ! D21   D(4,3,7,11)             0.1299         -DE/DX =    0.0                 !
 ! D22   D(4,3,7,31)           179.9766         -DE/DX =    0.0                 !
 ! D23   D(3,4,5,6)              0.1814         -DE/DX =    0.0                 !
 ! D24   D(3,4,5,9)           -179.8386         -DE/DX =    0.0                 !
 ! D25   D(8,4,5,6)           -179.7425         -DE/DX =    0.0                 !
 ! D26   D(8,4,5,9)              0.2375         -DE/DX =    0.0                 !
 ! D27   D(3,4,8,10)            -0.0351         -DE/DX =    0.0                 !
 ! D28   D(3,4,8,12)          -179.7149         -DE/DX =    0.0                 !
 ! D29   D(5,4,8,10)           179.8886         -DE/DX =    0.0                 !
 ! D30   D(5,4,8,12)             0.2088         -DE/DX =    0.0                 !
 ! D31   D(4,5,6,1)              0.0178         -DE/DX =    0.0                 !
 ! D32   D(4,5,6,37)           179.9867         -DE/DX =    0.0                 !
 ! D33   D(9,5,6,1)           -179.9621         -DE/DX =    0.0                 !
 ! D34   D(9,5,6,37)             0.0069         -DE/DX =    0.0                 !
 ! D35   D(1,6,37,38)          -60.5804         -DE/DX =    0.0                 !
 ! D36   D(1,6,37,39)         -179.7905         -DE/DX =    0.0                 !
 ! D37   D(1,6,37,40)           60.9974         -DE/DX =    0.0                 !
 ! D38   D(5,6,37,38)          119.4507         -DE/DX =    0.0                 !
 ! D39   D(5,6,37,39)            0.2407         -DE/DX =    0.0                 !
 ! D40   D(5,6,37,40)         -118.9714         -DE/DX =    0.0                 !
 ! D41   D(3,7,11,10)           -0.0595         -DE/DX =    0.0                 !
 ! D42   D(3,7,11,13)          179.6166         -DE/DX =    0.0                 !
 ! D43   D(31,7,11,10)        -179.9106         -DE/DX =    0.0                 !
 ! D44   D(31,7,11,13)          -0.2346         -DE/DX =    0.0                 !
 ! D45   D(3,7,31,32)           -0.0588         -DE/DX =    0.0                 !
 ! D46   D(11,7,31,32)         179.7901         -DE/DX =    0.0                 !
 ! D47   D(4,8,10,11)            0.109          -DE/DX =    0.0                 !
 ! D48   D(4,8,10,33)          179.3155         -DE/DX =    0.0                 !
 ! D49   D(12,8,10,11)         179.7899         -DE/DX =    0.0                 !
 ! D50   D(12,8,10,33)          -1.0036         -DE/DX =    0.0                 !
 ! D51   D(8,10,11,7)           -0.0613         -DE/DX =    0.0                 !
 ! D52   D(8,10,11,13)        -179.7296         -DE/DX =    0.0                 !
 ! D53   D(33,10,11,7)        -179.2789         -DE/DX =    0.0                 !
 ! D54   D(33,10,11,13)          1.0528         -DE/DX =    0.0                 !
 ! D55   D(8,10,33,34)        -113.0039         -DE/DX =    0.0                 !
 ! D56   D(8,10,33,35)           7.1523         -DE/DX =    0.0                 !
 ! D57   D(8,10,33,36)         127.4695         -DE/DX =    0.0                 !
 ! D58   D(11,10,33,34)         66.2304         -DE/DX =    0.0                 !
 ! D59   D(11,10,33,35)       -173.6134         -DE/DX =    0.0                 !
 ! D60   D(11,10,33,36)        -53.2962         -DE/DX =    0.0                 !
 ! D61   D(1,14,15,16)          -0.0648         -DE/DX =    0.0                 !
 ! D62   D(1,14,15,17)         179.7178         -DE/DX =    0.0                 !
 ! D63   D(14,15,17,18)       -179.2989         -DE/DX =    0.0                 !
 ! D64   D(14,15,17,19)          0.536          -DE/DX =    0.0                 !
 ! D65   D(16,15,17,18)          0.4778         -DE/DX =    0.0                 !
 ! D66   D(16,15,17,19)       -179.6873         -DE/DX =    0.0                 !
 ! D67   D(15,17,18,20)        179.8828         -DE/DX =    0.0                 !
 ! D68   D(15,17,18,21)          0.0241         -DE/DX =    0.0                 !
 ! D69   D(19,17,18,20)          0.0434         -DE/DX =    0.0                 !
 ! D70   D(19,17,18,21)       -179.8154         -DE/DX =    0.0                 !
 ! D71   D(15,17,19,22)       -179.8885         -DE/DX =    0.0                 !
 ! D72   D(15,17,19,23)          0.0389         -DE/DX =    0.0                 !
 ! D73   D(18,17,19,22)         -0.0565         -DE/DX =    0.0                 !
 ! D74   D(18,17,19,23)        179.8709         -DE/DX =    0.0                 !
 ! D75   D(17,18,20,24)         -0.0729         -DE/DX =    0.0                 !
 ! D76   D(17,18,20,25)        179.9653         -DE/DX =    0.0                 !
 ! D77   D(21,18,20,24)        179.7863         -DE/DX =    0.0                 !
 ! D78   D(21,18,20,25)         -0.1754         -DE/DX =    0.0                 !
 ! D79   D(17,19,22,24)          0.1            -DE/DX =    0.0                 !
 ! D80   D(17,19,22,26)       -179.8944         -DE/DX =    0.0                 !
 ! D81   D(23,19,22,24)       -179.8271         -DE/DX =    0.0                 !
 ! D82   D(23,19,22,26)          0.1784         -DE/DX =    0.0                 !
 ! D83   D(18,20,24,22)          0.1128         -DE/DX =    0.0                 !
 ! D84   D(18,20,24,27)        177.5041         -DE/DX =    0.0                 !
 ! D85   D(25,20,24,22)       -179.9255         -DE/DX =    0.0                 !
 ! D86   D(25,20,24,27)         -2.5342         -DE/DX =    0.0                 !
 ! D87   D(19,22,24,20)         -0.1269         -DE/DX =    0.0                 !
 ! D88   D(19,22,24,27)       -177.5201         -DE/DX =    0.0                 !
 ! D89   D(26,22,24,20)        179.8676         -DE/DX =    0.0                 !
 ! D90   D(26,22,24,27)          2.4744         -DE/DX =    0.0                 !
 ! D91   D(20,24,27,28)         22.8447         -DE/DX =    0.0                 !
 ! D92   D(20,24,27,29)        159.515          -DE/DX =    0.0                 !
 ! D93   D(22,24,27,28)       -159.8277         -DE/DX =    0.0                 !
 ! D94   D(22,24,27,29)        -23.1574         -DE/DX =    0.0                 !
 --------------------------------------------------------------------------------
 GradGradGradGradGradGradGradGradGradGradGradGradGradGradGradGradGradGrad


 ----------------------------------------------------------------------

 Electric dipole moment (input orientation):
 (Debye = 10**-18 statcoulomb cm , SI units = C m)
                  (au)            (Debye)         (10**-30 SI)
   Tot        0.143855D+02      0.365643D+02      0.121965D+03
   x          0.130682D+02      0.332162D+02      0.110797D+03
   y         -0.599394D+01     -0.152351D+02     -0.508188D+02
   z         -0.485738D+00     -0.123462D+01     -0.411826D+01

 Dipole polarizability, Alpha (input orientation).
 (esu units = cm**3 , SI units = C**2 m**2 J**-1)
 Alpha(0;0):
               (au)            (10**-24 esu)      (10**-40 SI)
   iso        0.516872D+03      0.765926D+02      0.852207D+02
   aniso      0.604338D+03      0.895537D+02      0.996419D+02
   xx         0.905011D+03      0.134109D+03      0.149216D+03
   yx        -0.122189D+02     -0.181065D+01     -0.201462D+01
   yy         0.415541D+03      0.615769D+02      0.685135D+02
   zx         0.166145D+01      0.246202D+00      0.273936D+00
   zy        -0.449837D+00     -0.666590D-01     -0.741681D-01
   zz         0.230064D+03      0.340920D+02      0.379325D+02

 ----------------------------------------------------------------------

 Dipole orientation:
     6          0.35486111          0.92629827          1.12547131
     6         -0.76429173         -1.52677258          0.67234960
     6         -1.04635446         -2.38786249         -1.91315268
     6         -0.23911902         -0.84344744         -3.92778203
     6          0.85823804          1.59097843         -3.39761363
     6          1.14436898          2.43897472         -1.01765606
     6         -2.12484147         -4.78126625         -2.44255326
     6         -0.50624502         -1.68543667         -6.41864095
     1          1.46414033          2.75691912         -4.96197579
     6         -1.55937498         -4.02719517         -6.87318316
     6         -2.37274421         -5.58511157         -4.92001881
     1          0.11430771         -0.52028618         -7.97835884
     1         -3.18917784         -7.42274079         -5.29171058
     7          0.70499507          1.86841456          3.43238677
     7          0.05304117          0.62910014          5.40416994
     1         -0.75407482         -1.12248774          5.14396510
     6          0.41977968          1.59264277          7.85727440
     6         -0.32325130          0.09743515          9.88954781
     6          1.49147995          3.95403536          8.29849495
     6         -0.00295723          0.94802213         12.33824601
     1         -1.15368392         -1.74546339          9.55690822
     6          1.80906340          4.79983975         10.74711144
     1          2.07388178          5.11747199          6.72434258
     6          1.07224171          3.31631012         12.81352043
     1         -0.58930812         -0.23151093         13.90620292
     1          2.64196750          6.64204369         11.07576361
     7          1.30756668          4.21625331         15.25936704
     1          1.32139265          2.90611671         16.64460421
     1          2.59548375          5.59486754         15.53532592
     8         -1.48184749         -2.90098603          2.49483617
     8         -2.91921417         -6.31608654         -0.58506712
     1         -2.58496118         -5.43130865          1.02629519
    16         -1.94544352         -5.11612509        -10.07814602
     8         -4.70946473         -5.21692203        -10.49842326
     8         -0.65737005         -3.23016707        -11.68436610
     8         -0.74420896         -7.63972360        -10.15469585
    16          2.55062504          5.53176449         -0.59784214
     8          0.63722061          7.08981900          0.71290594
     8          3.06792365          6.43475874         -3.19327861
     8          4.88853431          5.13495847          0.87989593

 Electric dipole moment (dipole orientation):
 (Debye = 10**-18 statcoulomb cm , SI units = C m)
                  (au)            (Debye)         (10**-30 SI)
   Tot        0.143855D+02      0.365643D+02      0.121965D+03
   x          0.000000D+00      0.000000D+00      0.000000D+00
   y          0.000000D+00      0.000000D+00      0.000000D+00
   z          0.143855D+02      0.365643D+02      0.121965D+03

 Dipole polarizability, Alpha (dipole orientation).
 (esu units = cm**3 , SI units = C**2 m**2 J**-1)
 Alpha(0;0):
               (au)            (10**-24 esu)      (10**-40 SI)
   iso        0.516872D+03      0.765926D+02      0.852207D+02
   aniso      0.604338D+03      0.895537D+02      0.996419D+02
   xx         0.271380D+03      0.402144D+02      0.447445D+02
   yx         0.946171D+02      0.140208D+02      0.156002D+02
   yy         0.450836D+03      0.668071D+02      0.743329D+02
   zx         0.540412D+02      0.800807D+01      0.891019D+01
   zy         0.170383D+03      0.252482D+02      0.280924D+02
   zz         0.828400D+03      0.122756D+03      0.136585D+03

 ----------------------------------------------------------------------
 Unable to Open any file for archive entry.
 1\1\GINC-SOL-E610\Freq\RCAM-B3LYP\6-311++G(d,p)\C16H11N3O8S2(2-)\ZJK22
 0\19-Mar-2025\0\\#N Geom=AllCheck Guess=TCheck SCRF=Check GenChk RCAM-
 B3LYP/6-311++G(d,p) Freq\\opt freq\\-2,1\C,0.76046,0.22751,0.01354\C,-
 0.0523,-0.96945,0.01876\C,-1.49549,-0.83164,0.01069\C,-2.08148,0.45033
 ,-0.00084\C,-1.23723,1.61769,-0.00107\C,0.10475,1.52036,0.00583\C,-2.3
 2941,-1.97745,0.01088\C,-3.47406,0.57866,-0.01357\H,-1.70077,2.59435,-
 0.00731\C,-4.25933,-0.55598,-0.01552\C,-3.70616,-1.83153,-0.00292\H,-3
 .9344,1.55699,-0.02711\H,-4.32882,-2.71653,-0.00898\N,2.09178,0.20041,
 0.01173\N,2.73241,-0.90748,0.01665\H,2.1819,-1.77778,0.02309\C,4.13973
 ,-0.95407,0.00897\C,4.74936,-2.20526,0.00017\C,4.9241,0.19588,0.00656\
 C,6.12756,-2.30954,-0.01001\H,4.1433,-3.10406,-0.00102\C,6.30106,0.088
 98,-0.00337\H,4.45352,1.16874,0.01124\C,6.93,-1.16338,-0.01319\H,6.591
 52,-3.28884,-0.01623\H,6.90525,0.98887,-0.00345\N,8.3105,-1.26322,0.02
 841\H,8.70589,-2.13451,-0.29186\H,8.82839,-0.45863,-0.29168\O,0.48353,
 -2.11658,0.02814\O,-1.81598,-3.21794,0.02115\H,-0.83214,-3.11986,0.026
 76\S,-6.05557,-0.40205,-0.01276\O,-6.49192,-0.92612,1.30125\O,-6.3373,
 1.03781,-0.18743\O,-6.52276,-1.23164,-1.14528\S,1.05628,3.06188,0.0042
 4\O,1.86163,3.05257,1.24417\O,0.03573,4.13337,0.00104\O,1.86492,3.0484
 5,-1.23354\\Version=ES64L-G16RevC.01\State=1-A\HF=-2178.8348283\RMSD=4
 .740e-09\RMSF=4.182e-06\ZeroPoint=0.2710474\Thermal=0.2953767\ETot=-21
 78.5394516\HTot=-2178.5385074\GTot=-2178.6198883\Dipole=13.068249,-5.9
 939412,-0.4857378\DipoleDeriv=-5.262109,-0.2694,-0.0040874,-0.8981262,
 -0.217442,0.0022877,0.0078085,-0.0025637,-0.0016843,2.0989973,-0.34521
 32,0.0087881,2.6196432,1.5125199,-0.0099656,-0.0120961,-0.0098907,0.33
 9724,-0.6990839,0.2137651,-0.0041402,0.4387712,-0.3685243,0.0035936,-0
 .0018046,0.0014848,-0.1105309,2.0973447,0.4047903,0.0024193,0.5290932,
 0.2038133,-0.0012124,0.0167367,0.0016359,0.0855549,-1.772624,0.0279179
 ,-0.0023801,-0.4795067,-0.1951465,-0.0010181,-0.0064341,0.0009634,-0.1
 485743,1.2435043,-0.1867848,0.0042121,-1.7003113,-0.0938047,-0.0045783
 ,0.0123742,0.0000496,-0.3047655,-0.1876631,-1.2389133,0.0066549,-0.012
 6218,1.6963781,-0.0103962,-0.0045702,-0.0162959,0.1926172,-2.1757883,-
 0.5775648,0.0030317,-0.6968968,-0.3420711,0.0029383,-0.0087368,-0.0175
 215,-0.1696295,0.0601939,0.0675737,-0.0006762,0.0013884,0.094256,0.000
 5575,-0.0020034,0.0007677,0.1729812,-0.1147039,-0.007437,-0.0145734,1.
 5608081,0.6013943,-0.0004897,-0.0682138,0.0020634,-0.2646631,0.1937637
 ,0.9045752,0.000079,-0.7957502,-0.4948988,-0.0043799,0.0407895,0.01918
 41,-0.1968716,0.1492733,0.0069758,0.0006624,0.0279669,0.0162678,0.0000
 985,-0.0021074,0.0004671,0.1866784,0.1012167,-0.0538568,0.0017169,-0.0
 668595,0.0262527,0.0020905,-0.0002941,0.0018389,0.1910078,4.9493731,-0
 .3364964,0.005649,-3.037068,0.1046942,-0.0025288,0.0174083,-0.0020131,
 -0.105647,-1.1157014,-0.0798647,0.0011374,3.9609708,-0.4436786,0.00331
 89,-0.0428915,0.0068354,-0.1162506,-0.0484007,0.1407527,-0.0008547,-0.
 1980161,0.291927,-0.0008004,0.0055471,-0.0016552,0.372896,0.150351,0.0
 395983,-0.0089433,-0.2914547,-0.2129073,-0.0004589,0.0120694,-0.001606
 1,0.0212779,0.5787673,-0.317974,0.0033527,-0.4677558,0.2183672,0.00329
 17,0.0006313,0.0055669,-0.1585553,0.895275,0.1818583,0.0050248,0.41149
 17,0.0327861,-0.0019845,-0.0060585,-0.00607,-0.1425946,-1.1675854,0.26
 38827,-0.0131685,-0.975069,0.1223113,-0.0173779,0.0397388,-0.0116256,-
 0.2342884,0.0739599,-0.1078562,0.0013408,-0.101812,0.0141055,-0.000685
 9,-0.0003833,-0.0000423,0.1846665,-1.266942,-0.0202566,-0.0104276,1.29
 15974,-0.0349921,0.0208501,0.0509032,0.006733,-0.2312664,0.1416223,0.0
 057523,0.001368,0.0919752,0.0449806,-0.0002092,-0.0000158,0.0002652,0.
 1885227,3.6004554,-0.3052237,0.0862038,-0.4630132,0.0206442,-0.0064395
 ,0.1609352,-0.0165553,0.1178547,-0.0147193,0.0944634,0.0022465,0.13500
 31,-0.0466523,-0.0011961,-0.0011465,-0.0025439,0.1884463,-0.0663993,-0
 .0939875,0.0027695,-0.126394,-0.0108301,-0.0009991,0.0008481,0.0015466
 ,0.1845189,-3.5875117,0.2912151,-0.1328222,0.2708198,-0.2629249,0.0098
 538,-0.9361063,0.0817444,-0.6309124,0.2807939,-0.0660111,0.0266309,-0.
 2061582,0.2074181,-0.0435628,0.3413415,-0.0998115,0.3380869,0.330736,0
 .049861,0.0316981,0.1849875,0.1610199,0.0398348,0.3525024,0.0407071,0.
 3387243,-0.4735189,0.3641175,-0.0048283,-1.3993503,-1.7934904,0.010177
 2,0.0066805,0.010283,-0.5019379,-0.8966294,0.6301849,-0.0059973,-0.070
 5044,-1.8839893,0.0102066,-0.0027219,0.0113816,-0.4685953,1.0380553,0.
 1644357,0.0010738,0.2972746,0.5137464,-0.0003253,0.0012552,-0.0003899,
 0.3834362,4.4197127,0.0648093,0.0213768,-0.0595067,3.1159674,-0.002526
 3,0.0040567,-0.0074503,3.2046581,-1.6841475,-0.116964,0.2889317,-0.259
 0311,-1.0079389,0.2947285,0.7275452,0.3015986,-1.6628466,-1.4874028,0.
 2517872,-0.0320485,0.6448671,-1.773862,0.1104948,-0.0656008,0.116342,-
 0.9167663,-1.6737659,-0.1977046,-0.2716493,-0.4257567,-1.177322,-0.403
 8188,-0.6368026,-0.414685,-1.47387,3.1313429,0.1829986,-0.0000935,0.30
 36261,3.5072947,0.0018814,-0.0036379,-0.0008821,3.2002984,-1.3236921,-
 0.261861,-0.4407507,-0.2060574,-1.1531167,-0.0496781,-0.5890947,-0.253
 7965,-1.5787187,-1.1891101,0.4932816,-0.0010012,0.3716504,-1.8406562,0
 .0015961,0.0000459,0.0017663,-0.8964439,-1.3272403,-0.2612269,0.442074
 3,-0.2049147,-1.1518965,0.0468318,0.5915027,0.2521737,-1.5765381\Polar
 =905.0110149,-12.2188531,415.5412267,1.6614512,-0.4498372,230.0642068\
 Quadrupole=-66.226931,14.1961893,52.0307418,-39.0405519,-8.218886,1.18
 91331\PG=C01 [X(C16H11N3O8S2)]\NImag=0\\0.66292250,-0.04661210,0.62333
 522,0.00034057,-0.00261262,0.13091969,-0.15617881,-0.04992634,0.000096
 46,0.62135373,-0.00359410,-0.16927791,0.00034542,-0.06686634,0.7203809
 8,-0.00033927,0.00034991,-0.07819412,0.00200493,-0.00354271,0.19146004
 ,-0.01449141,-0.01965282,-0.00005814,-0.21912196,-0.01935113,-0.000539
 57,0.65067084,-0.02033837,0.01266017,-0.00009443,-0.00917017,-0.118817
 87,0.00020992,-0.01154393,0.70377851,0.00006982,0.00000101,0.01022886,
 -0.00076036,0.00013560,-0.06885079,0.00347454,-0.00330567,0.12636214,0
 .02313985,-0.01087018,0.00004571,-0.00843799,0.03045795,-0.00020229,-0
 .16525028,0.04556907,-0.00089385,0.69280689,0.01222527,-0.01725799,0.0
 0006823,0.04533549,-0.00125619,0.00027641,0.06754443,-0.27133665,0.001
 64579,-0.00051773,0.66437249,0.00015517,-0.00000261,-0.00208861,-0.000
 33776,0.00014933,-0.00588365,-0.00119512,0.00150620,-0.05744710,0.0042
 0855,-0.00271187,0.15806415,-0.04897398,0.03543978,-0.00028228,-0.0232
 7122,-0.00071072,-0.00013957,0.03618816,-0.00220258,0.00016464,-0.1410
 4515,-0.05501370,-0.00020825,0.79106987,0.02278760,0.01010000,0.000097
 74,-0.00930185,0.00568640,-0.00007797,-0.00696377,-0.03675220,0.000073
 37,-0.07794904,-0.22686306,0.00035955,-0.06218709,0.67834494,-0.000343
 90,0.00009007,0.00409718,-0.00002585,-0.00002326,0.00120151,0.00021807
 ,0.00024596,0.00119955,-0.00017906,0.00035335,-0.06260114,0.00373319,-
 0.00257362,0.12567566,-0.10110287,0.04402249,-0.00038540,0.03665312,-0
 .00735549,0.00020367,-0.02030225,0.00616051,-0.00014384,-0.05259608,-0
 .03609784,-0.00014169,-0.45723764,0.04388467,-0.00217258,0.74749230,0.
 03890276,-0.23432087,0.00104779,-0.00740759,-0.03213747,0.00001485,0.0
 1332470,-0.00106379,0.00011304,-0.01775043,0.02106295,-0.00018763,0.01
 659426,-0.12384316,0.00048604,-0.05571993,0.50940548,-0.00034139,0.001
 01061,-0.04821314,0.00015467,0.00017209,-0.00133248,-0.00014271,0.0000
 5370,0.00176286,-0.00020010,-0.00026717,0.00395803,-0.00196986,0.00057
 020,-0.05163631,0.00285037,-0.00172693,0.13978916,-0.01858684,0.008841
 10,-0.00006423,-0.03486393,-0.02718724,-0.00014088,-0.18442819,-0.0433
 4395,-0.00059184,0.08213941,-0.02900590,0.00085269,-0.01096453,0.00220
 595,-0.00010950,0.00903071,-0.00770230,0.00004388,0.72172124,0.0097566
 0,0.00473642,0.00003580,-0.03880606,0.02343958,-0.00037725,-0.07799740
 ,-0.21481100,0.00036287,0.00395496,-0.04709533,0.00025466,0.00187514,-
 0.00298672,0.00006864,0.00323620,-0.00147389,0.00001179,-0.02268172,0.
 66171344,-0.00017284,0.00004730,0.00413974,-0.00003213,-0.00028353,0.0
 0198104,-0.00051816,0.00053169,-0.06331547,0.00063765,0.00002622,-0.00
 401348,-0.00014271,0.00010180,0.00688420,0.00003664,-0.00006417,-0.000
 64306,0.00491108,-0.00286167,0.16421025,-0.02146531,0.00612757,-0.0000
 1903,0.00410289,0.00690530,-0.00008155,-0.01345633,0.06684989,-0.00063
 572,-0.30172630,0.00902585,-0.00186492,-0.04938743,-0.01695868,-0.0003
 0028,0.01968728,-0.01181769,0.00010766,-0.07138027,-0.02197792,-0.0004
 3341,0.66904801,-0.00816773,0.00154944,-0.00001641,0.00101098,-0.00418
 978,0.00010229,0.03241157,0.01928370,0.00018218,0.06326300,-0.12583166
 ,0.00063364,-0.04033880,0.00190216,-0.00020348,0.00372294,-0.00908503,
 0.00007943,-0.03697364,-0.00224801,-0.00043469,-0.02454488,0.75573980,
 -0.00014912,0.00008543,-0.00103154,-0.00001384,0.00010965,0.00732799,-
 0.00022952,0.00072201,0.00523939,-0.00217077,0.00016809,-0.06529222,-0
 .00029323,-0.00015794,0.00503317,0.00013374,-0.00002711,0.00335772,-0.
 00085291,-0.00016108,0.00001090,0.00489266,-0.00445713,0.12592251,-0.0
 0397180,-0.00247253,-0.00004697,-0.00079637,-0.00050719,0.00000379,-0.
 00227872,-0.00249963,-0.00002117,0.01002297,-0.01806988,0.00011683,-0.
 11069310,0.11301026,-0.00085679,-0.01009532,0.02874391,-0.00018530,0.0
 0079312,-0.00065612,0.00001184,0.00125077,-0.00079400,0.00004283,0.117
 59683,-0.00136339,0.00077678,0.00001982,-0.00078374,-0.00000193,-0.000
 00810,-0.00290683,-0.00135387,-0.00001170,0.01046885,-0.01686474,0.000
 15247,0.11550638,-0.29158716,0.00159363,0.00256230,0.00203472,0.000023
 74,0.00100585,-0.00032003,0.00001759,0.00143434,0.00130346,-0.00000289
 ,-0.12159406,0.30829499,-0.00005242,0.00000616,0.00788172,-0.00001396,
 0.00000226,-0.00108958,-0.00001216,-0.00000098,0.00351525,0.00004211,0
 .00003346,0.00226486,-0.00089734,0.00155822,-0.03553295,-0.00004637,0.
 00013283,0.00397058,-0.00000382,-0.00000284,0.00010663,0.00001339,-0.0
 0003083,-0.00168130,0.00094086,-0.00173286,0.02521524,-0.00069568,-0.0
 0194024,0.00000467,0.00394097,0.00079513,-0.00000717,-0.00434039,-0.00
 686330,0.00013382,-0.03707644,-0.02795393,-0.00041338,-0.00284673,0.00
 394831,-0.00016997,-0.00253752,0.00026748,0.00001265,-0.01207024,0.038
 92870,-0.00040402,-0.19420842,-0.13333007,-0.00004221,0.00014062,-0.00
 004685,-0.00000747,0.55054523,0.01917185,-0.00517662,0.00000714,0.0007
 2779,-0.00776931,0.00007227,-0.00832373,-0.05779260,0.00029040,-0.0880
 0113,0.02746459,-0.00081656,0.01926248,0.00958532,0.00003902,-0.015039
 61,0.00843695,-0.00008546,0.10441042,0.01221635,0.00078075,-0.06508819
 ,-0.27896707,0.00079364,0.00009621,0.00002344,0.00001027,0.02626821,0.
 69213267,-0.00034849,-0.00006869,-0.00027229,0.00034940,0.00015067,-0.
 00017608,-0.00035968,0.00020474,-0.00155259,0.00038084,-0.00008563,0.0
 0371863,-0.00022530,0.00001280,0.00697724,0.00008892,-0.00009923,-0.00
 014864,-0.00058577,-0.00002719,-0.00113629,-0.00084408,-0.00051191,-0.
 05444334,-0.00000809,0.00000886,-0.00023466,0.00145206,-0.00234648,0.1
 4443833,0.01166737,-0.00322398,0.00001669,0.00515037,-0.00888474,0.000
 05040,-0.03515574,-0.05292268,-0.00021830,-0.05270632,0.02366702,-0.00
 041041,0.00742173,0.00341130,0.00001131,-0.00814876,0.00420941,-0.0000
 5635,-0.32914252,0.02564332,-0.00221152,0.07009134,0.01610324,0.000808
 25,-0.00008661,-0.00015631,0.00000704,-0.15252916,0.03472025,-0.000831
 18,0.70410758,-0.00969622,0.00522141,-0.00002916,-0.00768949,-0.004354
 57,-0.00000638,-0.01431521,0.03877780,-0.00029400,0.04120475,-0.013964
 88,0.00050834,-0.00970661,-0.00448469,-0.00002763,0.00832627,-0.006292
 17,0.00004030,-0.04351872,-0.12226943,0.00006205,-0.03966882,-0.060433
 40,-0.00029807,-0.00001153,0.00011147,-0.00000414,0.10052306,-0.301645
 09,0.00275166,0.03184871,0.73955246,0.00031103,-0.00009425,-0.00087144
 ,0.00003041,-0.00010518,0.00519520,-0.00024875,-0.00085348,0.00669139,
 -0.00115922,0.00032952,0.00004152,0.00028513,0.00005763,-0.00161203,-0
 .00019716,0.00017866,-0.00011102,-0.00202452,0.00089119,-0.06590153,0.
 00134764,0.00083983,0.00458161,-0.00000332,-0.00000733,0.00006138,-0.0
 0099097,0.00134445,-0.05126665,0.00500092,-0.00209018,0.11586267,-0.00
 008244,-0.00003958,-0.00000005,0.00066962,0.00141750,-0.00001179,-0.00
 478277,-0.00117362,-0.00017401,-0.00880889,0.02744031,-0.00021220,0.00
 136715,0.00142188,0.00004986,0.00014574,-0.00006289,0.00000427,-0.0012
 6285,-0.00016051,0.00007779,-0.10831663,0.11110330,-0.00179032,-0.0004
 0546,-0.00104067,-0.00000617,0.01200409,-0.01584416,0.00039337,-0.0022
 4335,-0.00334391,-0.00020801,0.11209143,-0.00000141,0.00008898,-0.0000
 0196,-0.00046437,0.00011621,0.00000607,-0.00038953,0.00112858,0.000041
 67,-0.00118693,0.00211850,0.00003064,-0.00133038,0.00081007,-0.0000611
 1,0.00015247,0.00009317,0.00000206,-0.00061192,0.00018108,0.00000265,0
 .11008486,-0.29559641,0.00327695,0.00014937,0.00006547,0.00001732,0.01
 054829,-0.01899443,0.00038579,-0.00362452,-0.00178961,-0.00000234,-0.1
 1783558,0.31305966,-0.00001511,0.00000147,0.00002184,-0.00000120,0.000
 01492,0.00045061,-0.00005264,0.00006203,0.00623633,-0.00001501,0.00016
 121,0.00221865,0.00002397,-0.00001942,-0.00373798,0.00002169,-0.000016
 48,-0.00005073,-0.00000241,-0.00001539,-0.00130537,-0.00175405,0.00370
 915,-0.03372851,-0.00001681,-0.00000509,0.00004540,-0.00003091,-0.0000
 0595,0.00168339,-0.00008966,-0.00004779,0.00665130,0.00169456,-0.00381
 860,0.02522050,-0.00047410,0.00011325,0.00000126,0.00032021,-0.0016363
 6,-0.00000011,-0.00506481,0.00187415,-0.00013272,-0.00090813,0.0008441
 8,-0.00000495,0.00026073,-0.00005415,0.00000995,-0.00015348,0.00019489
 ,0.00000052,-0.01345699,-0.02698444,-0.00016314,-0.00074349,0.00321821
 ,-0.00010799,-0.00001650,-0.00003732,0.00000067,0.01235821,0.01072140,
 0.00001748,-0.15499798,-0.13507515,-0.00092487,0.00057899,0.00059403,-
 0.00000076,0.15923229,-0.00018882,-0.00006445,0.00000103,0.00057742,0.
 00024870,-0.00000420,0.00094895,0.00041876,-0.00000341,0.00073761,0.00
 016335,0.00001042,-0.00012780,0.00002578,0.00000852,0.00002916,-0.0000
 4323,-0.00000099,0.00399328,0.00552376,0.00006352,0.00351662,-0.003036
 69,0.00002625,0.00002699,0.00002969,0.00000014,-0.01621956,-0.01729106
 ,-0.00009787,-0.13636755,-0.24847210,-0.00126188,-0.00088233,-0.000724
 10,0.00000243,0.14610979,0.26190068,0.00001274,0.00000938,-0.00025299,
 -0.00001359,-0.00001119,0.00000207,-0.00005800,0.00001670,0.00578816,0
 .00000434,0.00000751,-0.00131674,-0.00000739,-0.00000213,-0.00051178,0
 .00000316,-0.00000602,0.00007045,-0.00009524,-0.00024696,0.00538091,-0
 .00013273,0.00009418,0.00688772,-0.00000055,-0.00000036,0.00003661,0.0
 0006291,0.00009226,-0.00003720,-0.00112165,-0.00155924,-0.03249436,0.0
 0003077,0.00001731,0.00049589,0.00099806,0.00159544,0.02255530,-0.3115
 9163,-0.02160451,0.00050579,-0.05624365,-0.07755940,0.00062477,-0.0044
 1744,-0.00933038,-0.00002128,-0.01964548,-0.01222365,-0.00009710,0.028
 11578,0.00952160,0.00009045,-0.05933855,0.04055039,-0.00021723,0.01086
 686,-0.00380543,0.00008642,0.01847010,0.00761633,0.00013267,-0.0008080
 1,0.00042825,-0.00001331,0.00015460,-0.01642734,0.00029003,-0.01017909
 ,0.00718444,-0.00027099,0.00005598,0.00000640,0.00001532,-0.00011495,0
 .00021494,-0.00000935,0.63187264,-0.04055791,-0.12349857,0.00057060,-0
 .01889435,0.04677715,-0.00015039,-0.00435367,-0.00511299,-0.00000521,0
 .00966534,0.00304285,0.00003606,-0.00866086,-0.00755056,0.00002522,0.0
 4900340,-0.00646497,-0.00012079,-0.00679457,0.00490473,-0.00008174,-0.
 00918329,-0.00334476,-0.00006022,0.00132430,-0.00008992,0.00004343,0.0
 0017038,0.00781821,-0.00015660,0.00415078,-0.00415510,0.00014995,-0.00
 010956,0.00001760,-0.00000708,-0.00024427,-0.00008078,0.00000326,-0.12
 852767,0.53463404,0.00070181,0.00055661,-0.04930386,0.00022396,-0.0001
 3409,0.01872211,0.00000274,0.00005255,0.00001940,-0.00004574,-0.000028
 01,-0.00126208,0.00003693,0.00007886,0.00374124,-0.00026907,-0.0000406
 5,-0.01352845,0.00004630,-0.00002029,0.00005066,0.00004239,0.00001461,
 -0.00002151,-0.00002437,0.00001211,0.00232572,0.00000518,-0.00005005,-
 0.00010512,-0.00002301,0.00002934,0.00017419,-0.00000232,0.00000420,0.
 00014853,0.00000094,-0.00000018,0.00001506,-0.00044504,-0.00235872,0.0
 7722479,-0.06886422,0.06325165,-0.00028842,0.01385283,0.00691031,-0.00
 000633,-0.00189771,0.00406593,-0.00001217,0.00533364,0.00122225,0.0000
 3338,-0.00393315,0.00198101,-0.00002116,-0.00077847,-0.00875416,0.0000
 2952,-0.00188197,0.00104049,-0.00001387,-0.00517614,-0.00204052,-0.000
 03787,-0.00046406,-0.00026692,-0.00000047,0.00041393,0.00418748,-0.000
 06323,0.00238602,-0.00160992,0.00006511,0.00001475,-0.00000758,-0.0000
 0628,0.00004031,-0.00005740,0.00000378,-0.20225886,0.09639093,-0.00008
 398,0.77524353,0.09224287,0.00251464,-0.00023510,-0.01780648,-0.053592
 99,0.00034671,-0.00263290,-0.00152220,-0.00000007,-0.01410173,-0.00826
 505,-0.00006082,0.01547779,0.00101617,0.00004984,-0.01325009,0.0179385
 2,0.00000187,0.00914265,-0.00345507,0.00008775,0.01287114,0.00550692,0
 .00008236,0.00045589,0.00064547,-0.00000995,-0.00030798,-0.01142509,0.
 00019466,-0.00693553,0.00590904,-0.00020769,-0.00005328,0.00002142,0.0
 0001119,0.00000664,0.00013822,-0.00000588,0.09385652,-0.37916805,0.001
 83506,-0.00332620,0.80248017,-0.00066368,-0.00024954,0.00139061,0.0000
 1151,0.00048241,-0.00438285,0.00003903,0.00000451,0.00315351,0.0001156
 0,0.00009248,0.00019438,-0.00015941,-0.00003567,0.00011110,0.00015700,
 -0.00010157,0.00897077,-0.00009015,0.00003068,-0.00007419,-0.00010439,
 -0.00004729,-0.00026799,0.00000506,-0.00000901,-0.00102624,-0.00000307
 ,0.00010779,0.00012723,0.00006407,-0.00006396,-0.00047145,0.00000246,-
 0.00000332,-0.00010031,-0.00000034,0.00000004,0.00007556,0.00031304,0.
 00153722,-0.03962026,-0.00273234,-0.00352488,0.09176185,-0.01882463,-0
 .00717888,0.00005855,-0.00966057,0.03411009,-0.00025870,0.00538029,-0.
 00254494,0.00006097,0.00372081,0.00393477,0.00000421,-0.00421422,-0.00
 131068,-0.00001071,0.00221381,-0.00404452,0.00001972,-0.00404635,0.000
 36328,-0.00003628,-0.00270508,-0.00153005,-0.00001946,-0.00011992,-0.0
 0012665,-0.00000167,0.00020466,0.00291445,-0.00002884,0.00248930,-0.00
 180037,0.00005583,0.00008498,-0.00002924,-0.00000171,0.00004414,-0.000
 02583,-0.00000003,0.03935926,0.01856939,-0.00015572,-0.15770298,-0.127
 82905,0.00112099,0.14007107,-0.01479204,-0.00287391,0.00000417,0.00464
 134,0.01555108,-0.00012875,0.00213503,-0.00128698,0.00003116,0.0024900
 9,0.00212699,0.00000927,-0.00298141,-0.00075672,-0.00001069,0.00241150
 ,-0.00284801,0.00002276,-0.00208240,0.00015714,-0.00001943,-0.00193882
 ,-0.00097957,-0.00001371,-0.00006144,-0.00006893,-0.00000138,-0.000027
 32,0.00193775,-0.00003003,0.00139234,-0.00103430,0.00003557,0.00003138
 ,-0.00000522,-0.00000121,0.00001019,-0.00001878,0.00000221,0.00815674,
 -0.04363283,0.00030794,-0.13206063,-0.28305296,0.00181762,0.12512628,0
 .31841774,0.00021429,-0.00000652,-0.00831464,-0.00005830,-0.00021220,-
 0.00244471,-0.00002666,0.00002137,0.00243238,-0.00004321,-0.00002121,0
 .00023345,0.00004311,0.00000765,0.00003535,-0.00003144,0.00004445,0.00
 064209,0.00003137,-0.00000894,-0.00018450,0.00003884,0.00001342,-0.000
 21957,0.00000184,0.00000075,-0.00001097,-0.00000224,-0.00002940,-0.000
 03565,-0.00001832,0.00001120,-0.00020965,-0.00000079,0.00000059,-0.000
 00929,-0.00000079,-0.00000008,0.00005426,-0.00020703,0.00038335,0.0184
 8715,0.00122628,0.00168679,-0.02983554,-0.00095697,-0.00203378,0.02479
 269,0.00838057,-0.00209802,0.00008214,-0.00651056,0.00050849,-0.000012
 18,0.00236523,-0.00011424,-0.00000475,-0.00097423,0.00085560,-0.000005
 83,-0.00126724,-0.00128986,-0.00001021,0.00158273,-0.00036805,0.000035
 80,-0.00007465,-0.00039185,0.00000095,0.00082358,0.00027224,0.00000015
 ,0.00007358,0.00005869,-0.00000372,-0.00052030,-0.00032979,-0.00000498
 ,-0.00004775,0.00011620,-0.00000282,-0.00002788,0.00001597,0.00000231,
 0.00000194,0.00000150,-0.00000087,-0.03943080,0.04162983,-0.00009139,-
 0.25179503,-0.02761812,0.00112304,-0.01183717,-0.00048259,0.00000329,0
 .66565301,-0.00093308,-0.00495242,0.00010155,0.00214117,-0.00239483,0.
 00000098,-0.00069613,0.00067238,-0.00001664,0.00015734,-0.00015819,0.0
 0000520,-0.00028638,-0.00039979,-0.00000802,0.00157550,-0.00004204,0.0
 0003484,0.00019172,0.00007702,-0.00000301,-0.00030668,-0.00003722,-0.0
 0000110,0.00009996,0.00000362,-0.00000390,-0.00004751,0.00018670,-0.00
 001067,0.00001834,-0.00001510,0.00001475,-0.00001659,0.00000291,-0.000
 00141,-0.00000315,-0.00000736,-0.00000005,0.05452862,-0.00164266,-0.00
 034914,-0.01919889,-0.13184661,0.00033276,-0.01765446,0.01358587,0.000
 02871,0.00384581,0.73174420,0.00009372,0.00011567,0.01002793,0.0000293
 9,-0.00007254,0.00089383,-0.00001036,-0.00001142,-0.00229331,-0.000013
 79,-0.00001687,0.00020809,0.00004072,0.00000805,-0.00030499,-0.0000506
 6,0.00004465,0.00153163,0.00001399,-0.00000257,0.00027485,0.00001476,0
 .00000790,0.00017397,0.00000163,-0.00000083,-0.00029276,-0.00000413,-0
 .00001861,0.00002017,-0.00000537,0.00001139,0.00011405,0.00000067,-0.0
 0000085,0.00001316,0.00000090,-0.00000052,-0.00003669,-0.00032705,-0.0
 0014214,-0.01257783,0.00141451,0.00018883,-0.03922229,0.00010199,-0.00
 007100,-0.00221319,-0.00311614,0.00130040,0.14421693,0.00144219,0.0019
 2090,-0.00004348,0.00115592,-0.00178901,0.00000038,-0.00067799,-0.0001
 4522,0.00000343,-0.00036984,-0.00057433,-0.00000236,0.00114631,0.00058
 051,0.00000233,-0.00136440,0.00069724,-0.00001292,0.00048733,-0.000133
 41,0.00000345,0.00045527,0.00020966,0.00000632,-0.00002180,0.00000132,
 0.00000099,0.00018699,-0.00054440,0.00001366,-0.00035680,0.00026632,-0
 .00000788,0.00001260,-0.00000566,0.00000007,0.00000352,0.00000649,-0.0
 0000028,-0.00567679,-0.00363959,0.00009683,-0.03640351,0.04692010,0.00
 035558,0.00143359,0.00107849,-0.00003452,-0.15096424,0.02988104,0.0004
 8452,0.72770844,-0.00489490,-0.00062603,0.00000750,-0.00069001,0.00423
 590,-0.00002967,0.00079733,0.00007912,0.00000737,0.00101901,0.00092432
 ,0.00000484,-0.00189828,-0.00044655,-0.00000817,0.00145822,-0.00161089
 ,0.00001156,-0.00092837,0.00038919,-0.00000921,-0.00103957,-0.00045498
 ,-0.00000450,-0.00005902,-0.00002699,-0.00000115,-0.00022311,0.0010605
 7,-0.00003071,0.00065505,-0.00055971,0.00002463,-0.00001175,0.00000586
 ,-0.00000138,-0.00000985,-0.00001532,0.00000032,-0.00067165,0.00165707
 ,0.00003395,0.01663505,0.00106072,-0.00018891,-0.00231903,0.00190840,0
 .00005123,0.10169819,-0.29820711,-0.00149836,0.03347393,0.72060878,-0.
 00001629,-0.00001079,0.00094252,-0.00000693,0.00001507,-0.00033739,0.0
 0000089,0.00000184,0.00024939,0.00000854,0.00000335,-0.00002417,-0.000
 00716,-0.00000545,-0.00010016,0.00000740,-0.00000816,0.00021354,-0.000
 00280,0.00000261,-0.00009821,-0.00001029,-0.00000028,0.00000940,0.0000
 0079,-0.00000041,-0.00004199,0.00000521,0.00000402,-0.00004226,-0.0000
 0046,-0.00000633,0.00005566,0.00000090,-0.00000012,-0.00000210,0.00000
 015,0.00000042,-0.00000363,0.00000371,0.00002777,0.00024022,0.00014103
 ,-0.00027459,0.00263213,-0.00004334,0.00003642,-0.00061127,0.00103992,
 -0.00108676,-0.06484229,-0.00334575,0.00252876,0.13663119,0.00727723,0
 .00074649,0.00002051,0.00072801,-0.00643695,0.00007235,-0.00114261,-0.
 00012764,-0.00002512,-0.00138011,-0.00122906,-0.00000920,0.00223869,0.
 00061446,0.00001292,-0.00178227,0.00183107,-0.00003337,0.00125040,-0.0
 0046662,0.00001886,0.00137552,0.00060657,0.00001480,0.00004291,0.00003
 677,0.00000254,0.00021593,-0.00138675,0.00003205,-0.00090398,0.0007379
 2,-0.00003642,0.00000877,-0.00000240,0.00000187,0.00000518,0.00002134,
 -0.00000099,-0.00458183,-0.00462702,-0.00004424,-0.04490540,-0.0410274
 5,0.00024863,-0.00105109,0.00498405,0.00000511,-0.17000949,-0.04376462
 ,0.00042699,0.06180728,-0.03350370,-0.00050887,0.71687435,0.00513465,0
 .00060233,-0.00000342,0.00013824,-0.00333610,0.00004916,-0.00063524,-0
 .00024203,-0.00001153,-0.00090863,-0.00077019,-0.00000797,0.00166171,0
 .00045131,0.00001082,-0.00147669,0.00142286,-0.00002954,0.00075220,-0.
 00033543,0.00001369,0.00094073,0.00039006,0.00001037,0.00003012,0.0000
 2475,0.00000243,0.00019830,-0.00093220,0.00002436,-0.00057622,0.000477
 82,-0.00002931,0.00001225,-0.00000406,0.00000198,0.00000576,0.00001625
 ,-0.00000083,-0.00470033,-0.00131947,-0.00001946,-0.01130637,0.0098748
 7,0.00008757,0.00235116,-0.00004945,-0.00000298,-0.11303678,-0.2716232
 9,0.00029619,0.01624307,-0.05625623,-0.00044204,-0.04071071,0.73522540
 ,-0.00008667,-0.00000868,0.00005055,-0.00001328,0.00008004,-0.00006031
 ,0.00001333,0.00000212,-0.00008452,0.00001668,0.00001224,-0.00000008,-
 0.00002719,-0.00000871,-0.00013443,0.00001822,-0.00001782,0.00001279,-
 0.00001372,0.00000883,-0.00012492,-0.00002051,-0.00000667,0.00003404,-
 0.00000045,-0.00000002,0.00001539,-0.00000031,0.00001427,-0.00001684,0
 .00000934,-0.00000937,0.00006572,-0.00000070,0.00000014,0.00001512,-0.
 00000023,-0.00000035,0.00000290,0.00004480,-0.00002827,0.00078254,0.00
 029478,0.00033255,0.00275894,0.00002243,-0.00003954,0.00198076,0.00035
 204,-0.00022104,-0.06791797,-0.00030896,0.00012601,0.00740226,-0.00371
 617,0.00154997,0.13842514,-0.00636946,-0.00112595,0.00002019,-0.000208
 21,0.00499178,-0.00003065,0.00068374,0.00016745,0.00000863,0.00139770,
 0.00103408,0.00000819,-0.00220170,-0.00046435,-0.00001230,0.00174920,-
 0.00188862,0.00001668,-0.00116819,0.00054890,-0.00001455,-0.00143269,-
 0.00060904,-0.00000738,-0.00006678,-0.00003980,-0.00000117,-0.00022116
 ,0.00139861,-0.00003524,0.00084853,-0.00072718,0.00003343,-0.00001256,
 0.00000398,-0.00000183,-0.00001192,-0.00002083,0.00000079,0.00406966,-
 0.00269349,0.00003991,0.00563091,0.00256078,-0.00009582,-0.00085766,-0
 .00030963,-0.00000027,-0.02516505,0.08731942,0.00063471,-0.36097862,-0
 .01604807,0.00189280,-0.05509696,-0.03059992,0.00032472,0.72163969,-0.
 00529597,-0.00116159,0.00002419,0.00010821,0.00386344,-0.00001936,0.00
 047325,0.00018105,0.00000105,0.00107325,0.00075540,0.00000970,-0.00158
 469,-0.00037527,-0.00000614,0.00140674,-0.00133491,0.00001514,-0.00088
 032,0.00038045,-0.00000632,-0.00109890,-0.00048197,-0.00001046,-0.0000
 3078,-0.00003220,-0.00000086,-0.00013012,0.00107859,-0.00002124,0.0006
 5577,-0.00053390,0.00001383,-0.00000825,0.00000332,-0.00000038,-0.0000
 0737,-0.00001272,0.00000082,0.00671031,-0.00259360,-0.00003738,0.00084
 080,-0.00284809,-0.00007809,-0.00035908,-0.00077258,-0.00000703,0.0303
 5668,0.02906083,-0.00000475,0.05390970,-0.13307511,-0.00089875,-0.0221
 4495,-0.01503042,0.00009863,-0.04178904,0.71661984,0.00016534,0.000026
 67,-0.00043056,0.00000634,-0.00014282,0.00022774,-0.00001753,-0.000003
 49,-0.00001690,-0.00004407,-0.00002981,-0.00003783,0.00005924,0.000015
 08,0.00006701,-0.00003640,0.00005309,-0.00033557,0.00003040,-0.0000213
 7,0.00004868,0.00004751,0.00001271,0.00001607,0.00000121,0.00000124,0.
 00005125,0.00000445,-0.00003599,0.00000844,-0.00002200,0.00002541,-0.0
 0002719,-0.00000057,0.00000046,-0.00000167,-0.00000019,0.00000093,0.00
 000054,-0.00007809,0.00004642,0.00179801,-0.00009954,-0.00009450,0.004
 88924,0.00000921,-0.00000333,-0.00021348,0.00054127,-0.00124777,0.0055
 2671,0.00126495,0.00002452,-0.05765306,0.00072467,0.00046050,-0.001605
 31,-0.00314802,0.00282683,0.12857382,0.00062932,0.00010983,-0.00000172
 ,-0.00014560,-0.00036885,0.00000346,0.00000417,-0.00002204,-0.00000231
 ,-0.00014773,-0.00007202,-0.00000107,0.00018922,0.00001222,0.00000178,
 -0.00013510,0.00018322,-0.00000174,0.00009705,-0.00007041,0.00000309,0
 .00014797,0.00005718,0.00000038,0.00000904,0.00000427,0.00000034,0.000
 01744,-0.00013356,0.00000381,-0.00007353,0.00007188,-0.00000524,0.0000
 0099,0.00000041,0.00000033,0.00000112,0.00000270,-0.00000009,-0.000494
 81,-0.00006452,-0.00000359,0.00151003,0.00071356,-0.00001994,-0.000310
 66,-0.00069071,-0.00008797,0.01071772,0.01164873,0.00000427,-0.1465137
 3,-0.12830750,0.00007382,-0.00063771,0.00272462,0.00004069,-0.01209497
 ,-0.02715737,-0.00006563,0.15196647,-0.00013050,0.00002917,0.00000192,
 0.00012512,-0.00004921,0.00000899,-0.00003737,0.00002636,-0.00000242,0
 .00002682,-0.00000480,-0.00000016,-0.00002731,0.00002047,0.00000220,0.
 00001807,-0.00004398,-0.00000648,-0.00000956,0.00000549,0.00000224,-0.
 00003221,-0.00001893,-0.00000158,-0.00000283,-0.00000154,0.00000070,0.
 00000463,0.00002491,-0.00000029,0.00000642,-0.00000306,-0.00000376,-0.
 00000116,0.00000186,0.00000029,-0.00000189,0.00000073,-0.00000006,0.00
 059232,0.00000748,0.00000330,-0.00232280,0.00175456,0.00003354,0.00089
 251,0.00029980,-0.00004902,-0.01813595,-0.01708878,-0.00001231,-0.1285
 9952,-0.25542399,-0.00038371,0.00367374,-0.00380767,-0.00006703,0.0032
 8276,0.00634793,-0.00000846,0.13951912,0.26599749,-0.00000394,-0.00000
 093,0.00016628,0.00000281,0.00000043,-0.00016281,-0.00000115,0.0000016
 4,-0.00006647,0.00000363,-0.00000017,0.00000977,-0.00000383,-0.0000000
 7,-0.00002363,0.00000253,-0.00000268,0.00015685,-0.00000211,0.00000112
 ,0.00000581,-0.00000346,-0.00000144,0.00001192,-0.00000022,0.00000007,
 -0.00001833,-0.00000124,0.00000292,-0.00000120,0.00000196,-0.00000027,
 0.00000510,-0.00000025,0.00000016,0.00000267,-0.00000014,-0.00000011,0
 .00000016,-0.00000155,0.00002054,-0.00048603,-0.00001270,-0.00001601,-
 0.00343281,-0.00006104,-0.00003011,0.00063840,-0.00017048,-0.00010733,
 0.00463795,0.00003279,-0.00047911,-0.03772196,0.00003717,-0.00004950,0
 .00555245,0.00015765,0.00018276,0.00416816,0.00001383,0.00049162,0.024
 98187,-0.00918228,-0.00138960,0.00000172,0.00051640,0.00658324,-0.0000
 7372,0.00073775,0.00027781,0.00002329,0.00183785,0.00124764,0.00000825
 ,-0.00260421,-0.00051482,-0.00001457,0.00210407,-0.00230714,0.00003589
 ,-0.00143281,0.00068885,-0.00002319,-0.00184803,-0.00077979,-0.0000089
 8,-0.00007485,-0.00005566,-0.00000325,-0.00022922,0.00176419,-0.000047
 57,0.00106679,-0.00091208,0.00004881,-0.00001257,0.00000378,-0.0000033
 3,-0.00001196,-0.00002731,0.00000107,0.00835957,-0.00269645,0.00003650
 ,0.00637875,0.00562878,-0.00003486,-0.00079863,-0.00042346,-0.00000309
 ,-0.04325128,-0.07972339,0.00017478,-0.04720093,0.03438233,0.00048136,
 -0.36465092,0.05312590,0.00207015,0.06306179,0.01036710,-0.00074430,-0
 .00074484,0.00082450,0.00000201,0.73488207,0.00822603,0.00177272,-0.00
 001158,-0.00020005,-0.00639323,0.00004873,-0.00068780,-0.00015357,-0.0
 0001218,-0.00169435,-0.00114595,-0.00000887,0.00232418,0.00045531,0.00
 001072,-0.00188726,0.00202509,-0.00002139,0.00137214,-0.00063226,0.000
 01401,0.00169791,0.00073675,0.00000888,0.00006618,0.00005180,0.0000018
 8,0.00017831,-0.00163447,0.00003987,-0.00099544,0.00084333,-0.00003217
 ,0.00000976,-0.00000379,0.00000163,0.00001295,0.00002160,-0.00000091,-
 0.00556459,0.00360595,-0.00001671,-0.00425855,-0.01368352,0.00005781,0
 .00016989,0.00139672,-0.00000658,-0.02017313,0.04743039,0.00013673,0.0
 2750142,-0.02397539,-0.00025127,-0.01797770,-0.13389389,0.00008897,-0.
 02693579,-0.04702252,-0.00003616,0.00055990,0.00026952,0.00004102,0.03
 922360,0.70003936,0.00029054,0.00004142,-0.00010538,-0.00000881,-0.000
 22110,0.00022338,-0.00002436,-0.00001061,0.00002662,-0.00006089,-0.000
 04165,-0.00004374,0.00008655,0.00001827,0.00012870,-0.00006339,0.00007
 144,-0.00017384,0.00004595,-0.00002336,0.00005264,0.00006592,0.0000259
 8,-0.00002041,0.00000204,0.00000204,0.00002173,0.00000438,-0.00005677,
 0.00001322,-0.00003513,0.00003062,-0.00002113,0.00000025,0.00000007,-0
 .00000849,0.00000035,0.00000081,-0.00000396,-0.00024621,0.00010514,-0.
 00024735,-0.00010084,-0.00024030,0.00518425,0.00001898,0.00002765,0.00
 056961,0.00058881,0.00148387,0.00641687,0.00083941,-0.00066433,-0.0024
 6455,0.00094541,-0.00076446,-0.05828346,-0.00090900,-0.00018729,0.0064
 5323,0.00001335,-0.00000209,-0.00116951,-0.00261481,0.00121730,0.12979
 906,0.00016098,0.00035726,-0.00000061,-0.00000938,-0.00006232,0.000001
 04,0.00000493,-0.00000082,0.00000048,-0.00001372,0.00000551,-0.0000005
 4,0.00000137,-0.00003899,0.00000024,-0.00005095,0.00004483,-0.00000137
 ,0.00000490,-0.00000336,-0.00000034,0.00001054,-0.00000343,0.00000171,
 0.00000382,0.00000388,0.00000004,-0.00000004,-0.00000815,-0.00000055,-
 0.00000815,-0.00000105,-0.00000029,0.00000139,0.00000033,-0.00000004,0
 .00000072,0.00000030,-0.00000009,-0.00166401,-0.00188137,0.00001443,-0
 .00042449,0.00176495,-0.00002138,0.00011804,-0.00012587,-0.00000106,0.
 01394717,-0.01534303,-0.00009219,-0.00211523,-0.00308236,0.00002912,-0
 .11145513,0.11208138,0.00073683,-0.00072636,-0.00045497,0.00000777,0.0
 0034105,-0.00095293,-0.00000632,-0.00813691,0.02772868,0.00010322,0.11
 592349,0.00011875,0.00094348,-0.00000957,0.00008399,-0.00047357,0.0000
 0127,0.00006809,0.00009769,0.00000051,-0.00016970,-0.00006269,-0.00000
 220,0.00014390,-0.00001796,-0.00000016,-0.00011356,0.00009809,0.000001
 71,0.00012876,-0.00010100,0.00000262,0.00016509,0.00007666,0.00000284,
 0.00001591,0.00000304,0.00000013,0.00000237,-0.00013934,0.00000266,-0.
 00006139,0.00009211,-0.00000352,-0.00000069,-0.00000072,0.00000002,0.0
 0000505,0.00000143,-0.00000008,0.00003301,0.00005280,0.00000903,0.0023
 2684,-0.00074870,-0.00000772,-0.00003236,-0.00001949,-0.00000104,0.012
 64166,-0.01786543,-0.00010688,-0.00373500,-0.00260399,0.00000803,0.110
 87676,-0.29758932,-0.00118828,-0.00063760,0.00046968,0.00001318,0.0006
 1515,-0.00081241,-0.00000516,-0.00145008,0.00372987,0.00001119,-0.1220
 0493,0.31340713,0.00000353,0.00000309,-0.00025335,-0.00000192,-0.00000
 264,-0.00027421,0.00000036,0.00000069,0.00009789,-0.00000001,0.0000004
 4,-0.00001310,-0.00000127,-0.00000044,-0.00002054,-0.00000011,-0.00000
 039,0.00031833,0.00000021,-0.00000132,-0.00002656,0.00000024,-0.000000
 19,0.00000170,0.00000019,-0.00000011,-0.00003091,0.00000082,0.00000101
 ,-0.00001217,-0.00000020,-0.00000015,0.00000438,0.00000014,-0.00000013
 ,-0.00000041,0.00000007,0.00000022,0.00000506,-0.00002081,-0.00000835,
 0.00009169,-0.00000945,0.00000028,-0.00329081,0.00000026,-0.00000178,-
 0.00025892,-0.00005402,0.00000693,0.00494322,0.00002898,-0.00000193,0.
 00555094,0.00071842,-0.00111817,-0.03852069,-0.00000883,-0.00003533,-0
 .00118621,-0.00000141,0.00000377,0.00023520,0.00011735,-0.00018938,0.0
 0428559,-0.00079682,0.00126355,0.02696233,0.01431734,0.00226890,-0.000
 06489,-0.00077038,-0.01041604,0.00003936,-0.00108769,-0.00043102,-0.00
 000281,-0.00297575,-0.00197893,-0.00001597,0.00418741,0.00075736,0.000
 01173,-0.00334680,0.00368491,-0.00001356,0.00237765,-0.00108901,0.0000
 1874,0.00303255,0.00132827,0.00002405,0.00013019,0.00009422,0.00000034
 ,0.00033213,-0.00292145,0.00006590,-0.00174682,0.00146067,-0.00004698,
 0.00002210,-0.00001264,0.00000233,0.00002594,0.00003564,-0.00000132,-0
 .01214521,0.00633555,0.00000980,-0.00231488,-0.00862997,0.00011760,0.0
 0146633,0.00027735,0.00000010,0.01227824,-0.00518830,-0.00045874,-0.04
 163245,-0.02447219,0.00079120,-0.02463674,0.03562917,0.00083403,-0.171
 97438,-0.10626869,0.00110755,-0.00464355,0.00199606,0.00012244,-0.1514
 8887,0.08788125,0.00156678,-0.00492672,-0.00107794,0.00010078,0.701923
 45,-0.00353183,-0.00058565,-0.00000626,0.00047576,0.00243567,-0.000035
 90,0.00018796,0.00009996,0.00000903,0.00066748,0.00040272,0.00000516,-
 0.00080827,-0.00013801,-0.00000718,0.00065470,-0.00074849,0.00001720,-
 0.00048036,0.00024911,-0.00001039,-0.00065834,-0.00027259,-0.00000454,
 -0.00002320,-0.00001993,-0.00000171,-0.00005241,0.00060421,-0.00001592
 ,0.00036389,-0.00031674,0.00002066,-0.00000266,-0.00000004,-0.00000153
 ,-0.00000359,-0.00001005,0.00000059,0.00413027,-0.00074029,0.00001460,
 0.00101386,0.00292478,0.00001563,-0.00015209,-0.00020170,-0.00000667,-
 0.00836598,-0.08799517,-0.00018164,-0.08019792,0.05272721,0.00097040,0
 .09066854,0.03687733,-0.00091517,-0.03874653,-0.26525813,-0.00051582,0
 .00171623,0.00154768,-0.00004371,0.02001413,-0.27956671,-0.00072288,-0
 .00062056,0.00169273,-0.00001172,0.00210437,0.69205252,0.00122659,0.00
 020845,0.00037122,-0.00009525,-0.00087458,0.00015012,-0.00007820,-0.00
 003481,-0.00007827,-0.00025324,-0.00015883,0.00003816,0.00034184,0.000
 05964,-0.00003261,-0.00028028,0.00029863,-0.00007567,0.00020178,-0.000
 09224,-0.00005012,0.00025020,0.00011275,-0.00002217,0.00001079,0.00000
 860,0.00000019,0.00002828,-0.00025187,0.00001068,-0.00015084,0.0001238
 2,0.00002947,0.00000166,-0.00000040,0.00000354,0.00000224,0.00000278,-
 0.00000339,-0.00110113,0.00065953,-0.00077043,0.00026396,-0.00084860,-
 0.00058252,0.00012441,0.00002062,0.00016130,0.00052888,-0.00013839,-0.
 00531001,-0.00060006,-0.00005195,0.00214683,-0.00010145,0.00035111,0.0
 0200910,0.00150001,0.00215974,-0.07045624,-0.00003249,0.00000939,0.007
 82944,0.00116835,-0.00340907,-0.07047321,-0.00004519,-0.00003416,0.008
 28582,-0.01207669,0.00223022,0.16790902,-0.00071741,-0.00002895,0.0000
 0229,0.00010056,0.00047587,0.00000396,0.00001763,0.00001903,-0.0000027
 8,0.00015123,0.00008366,0.00000114,-0.00019939,-0.00000428,0.00000161,
 0.00012862,-0.00019352,-0.00000522,-0.00011704,0.00005317,0.00000127,-
 0.00015314,-0.00007377,-0.00000312,-0.00001148,-0.00000590,0.00000065,
 -0.00000897,0.00014872,-0.00000134,0.00008194,-0.00006824,-0.00000262,
 -0.00000136,0.00000152,0.00000036,-0.00000253,-0.00000039,0.00000012,0
 .00006687,-0.00040337,0.00000826,-0.00035707,0.00205608,0.00000529,0.0
 0006942,0.00009071,-0.00000490,-0.00459070,-0.00109269,0.00006002,-0.0
 0929255,0.02950568,0.00018932,-0.00096102,-0.00044958,0.00000277,-0.11
 004700,0.10713163,0.00099432,0.00126444,-0.00027908,-0.00002757,-0.001
 61894,-0.00328892,0.00001733,0.00007795,0.00008687,-0.00000391,0.01012
 357,-0.01672409,-0.00009883,0.11339695,0.00055627,0.00010827,-0.000007
 37,-0.00005796,-0.00039067,-0.00001085,-0.00002944,-0.00002423,0.00000
 608,-0.00010983,-0.00006945,-0.00000212,0.00015655,0.00001581,-0.00000
 322,-0.00013817,0.00013672,0.00000787,0.00009792,-0.00002394,-0.000004
 51,0.00011661,0.00006689,0.00000595,0.00000518,0.00000481,-0.00000129,
 0.00000166,-0.00012390,-0.00000203,-0.00006780,0.00004595,0.00000930,0
 .00000145,-0.00000251,-0.00000099,0.00000249,-0.00000137,0.,-0.0005290
 7,0.00033175,0.00000863,0.00003436,-0.00041447,-0.00000285,0.00001585,
 -0.00000215,0.00000409,-0.00045473,0.00220486,0.00000323,-0.00135083,0
 .00230586,-0.00002200,-0.00113164,0.00001743,0.00000901,0.10737983,-0.
 29068789,-0.00145561,0.00023133,0.00074175,0.00001400,-0.00356822,-0.0
 0286194,-0.00001339,0.00006317,-0.00002364,0.00000487,0.01405791,-0.01
 802782,-0.00031761,-0.11581180,0.30566973,0.00000038,-0.00000158,-0.00
 016713,-0.00000084,0.00000036,0.00001133,0.00000009,-0.00000023,0.0000
 0519,-0.00000003,0.00000026,-0.00000109,0.00000036,-0.00000064,0.00000
 741,-0.00000099,-0.00000024,-0.00001673,0.00000059,0.00000087,0.000000
 07,-0.00000021,0.00000089,-0.00000307,0.00000009,-0.00000002,0.0000043
 2,-0.00000030,-0.00000101,0.00000196,-0.00000034,-0.00000030,-0.000002
 06,0.00000007,-0.00000007,0.00000036,0.00000006,-0.00000012,0.00000090
 ,0.00001492,-0.00000227,-0.00000250,0.00000031,-0.00002332,0.00077556,
 -0.00000242,-0.00000046,-0.00001904,0.00007974,-0.00003685,0.00739182,
 0.00011534,-0.00023854,0.00263609,0.00004247,0.00002459,-0.00103323,0.
 00081868,-0.00150314,-0.03530143,-0.00004020,0.00003065,-0.00471755,0.
 00004346,0.00000518,0.00578546,-0.00000421,-0.00000131,-0.00062143,-0.
 00011767,-0.00001525,0.00461618,-0.00120018,0.00164227,0.02432451,-0.0
 0081217,-0.00017031,0.00000612,0.00014131,0.00050203,0.00000486,0.0000
 0995,0.00003523,-0.00000402,0.00017560,0.00009385,0.00000205,-0.000232
 75,-0.00001328,0.00000115,0.00018699,-0.00021785,-0.00000468,-0.000131
 80,0.00005929,0.00000218,-0.00018290,-0.00008629,-0.00000350,-0.000010
 53,-0.00000682,0.00000077,-0.00001063,0.00017653,-0.00000175,0.0000946
 5,-0.00007832,-0.00000360,-0.00000200,0.00000193,0.00000049,-0.0000030
 1,-0.00000046,0.00000005,0.00092874,-0.00045668,-0.00000448,-0.0008483
 6,-0.00130614,0.00000772,-0.00020123,0.00030414,-0.00000111,-0.0044973
 4,0.00172808,0.00005013,-0.00080933,0.00060232,0.00001184,-0.01339057,
 -0.02705697,0.00001456,-0.00059070,0.00296318,0.00002488,0.00001945,-0
 .00011439,-0.00000441,-0.14528406,-0.12844097,0.00034050,0.00138489,0.
 00017444,-0.00002304,0.00994350,0.01256733,0.00001902,0.00053584,0.000
 59690,-0.00000722,0.15205860,-0.00037496,-0.00008244,0.00000900,0.0000
 2339,0.00027290,0.00001152,0.00002413,0.00001596,-0.00000694,0.0000719
 1,0.00004865,0.00000184,-0.00010740,-0.00000997,0.00000369,0.00009938,
 -0.00008963,-0.00000828,-0.00007003,0.00001068,0.00000455,-0.00007803,
 -0.00004981,-0.00000513,-0.00000349,-0.00000356,0.00000114,0.00000082,
 0.00008726,0.00000165,0.00004679,-0.00002830,-0.00000850,-0.00000135,0
 .00000235,0.00000093,-0.00000200,0.00000152,-0.00000005,0.00025463,-0.
 00023155,-0.00001313,0.00010411,0.00053223,0.00000199,0.00003149,-0.00
 001104,-0.00000211,0.00146124,0.00178923,-0.00005576,0.00124855,-0.000
 16632,0.00000886,0.00366895,0.00623340,0.00001316,0.00327860,-0.003827
 93,-0.00004861,-0.00011064,-0.00002383,-0.00000442,-0.12881384,-0.2548
 9253,-0.00023842,-0.00029169,0.00073080,0.00002897,-0.01830018,-0.0179
 4369,0.00017085,-0.00082302,-0.00096570,0.00001501,0.13844421,0.266972
 15,0.00001213,0.00000032,-0.00014210,-0.00000085,-0.00000950,-0.000036
 17,-0.00000191,-0.00000038,0.00005690,-0.00000224,-0.00000180,-0.00000
 536,0.00000403,0.00000022,-0.00000018,-0.00000332,0.00000383,-0.000001
 02,0.00000278,-0.00000072,-0.00000861,0.00000277,0.00000175,0.00000027
 ,0.00000024,0.00000004,-0.00000063,0.00000021,-0.00000295,-0.00000186,
 -0.00000158,0.00000087,-0.00000143,0.00000017,-0.00000018,-0.00000033,
 0.00000015,-0.00000001,0.00000068,-0.00001418,0.00000449,0.00033395,-0
 .00000238,0.00001754,0.00051291,0.00000130,-0.00000185,-0.00023706,0.0
 0010751,-0.00000697,0.00767842,0.00004443,-0.00001956,-0.00095528,0.00
 017208,0.00020877,0.00301921,0.00004691,-0.00006032,0.00562726,-0.0000
 0341,0.00000457,-0.00060209,0.00011551,-0.00018275,-0.03584115,-0.0000
 4313,0.00001149,-0.00499113,-0.00019631,-0.00007259,0.00459707,-0.0000
 1200,-0.00001339,-0.00034571,-0.00054521,0.00037552,0.02461332,-0.0162
 6485,-0.00275523,0.00004083,0.00113497,0.01168353,-0.00007339,0.001081
 94,0.00046279,0.00001139,0.00337660,0.00215159,0.00001804,-0.00457610,
 -0.00078274,-0.00001566,0.00365550,-0.00406021,0.00003143,-0.00265521,
 0.00125029,-0.00002112,-0.00342462,-0.00149128,-0.00002333,-0.00014538
 ,-0.00010730,-0.00000188,-0.00033875,0.00327166,-0.00007549,0.00195256
 ,-0.00163845,0.00005309,-0.00002308,0.00001243,-0.00000243,-0.00002951
 ,-0.00004074,0.00000189,0.01418216,-0.00830303,0.00002997,-0.00129580,
 0.01103670,-0.00019159,-0.00139489,-0.00028904,0.00000406,-0.00966105,
 -0.00090655,0.00037703,0.01041039,-0.00269500,0.00015020,0.01043824,0.
 00020173,0.00025805,-0.04984787,-0.01561332,-0.00074990,-0.00063444,-0
 .00034490,-0.00007302,-0.04048801,0.02251801,-0.00045835,-0.00007531,0
 .00017069,-0.00008608,-0.29753090,0.01172427,-0.01371020,0.00200681,0.
 00144895,-0.00022528,0.00185497,-0.00140594,-0.00031107,0.64851360,0.0
 0143959,0.00031381,-0.00002297,-0.00011107,-0.00105256,0.00000727,-0.0
 0008893,-0.00003462,-0.00000120,-0.00030000,-0.00018912,-0.00000439,0.
 00039377,0.00006654,0.00000110,-0.00031818,0.00034970,-0.00000738,0.00
 023284,-0.00011297,0.00000290,0.00030318,0.00013153,0.00000420,0.00001
 271,0.00000943,0.00000160,0.00002739,-0.00028575,0.00000712,-0.0001700
 0,0.00014524,-0.00000637,0.00000176,-0.00000096,0.00000040,0.00000260,
 0.00000374,-0.00000013,-0.00133101,0.00067300,0.00004668,0.00001865,-0
 .00065489,-0.00000519,0.00021416,-0.00001807,-0.00000839,0.00136757,0.
 00799666,0.00000995,0.00477499,-0.00987216,-0.00109968,-0.00759850,-0.
 00941550,0.00098419,-0.04473218,0.00670249,-0.00109729,-0.00149202,0.0
 0015540,0.00004915,0.05155899,-0.00324042,0.00106779,0.00135675,0.0000
 3326,-0.00004612,0.01226361,-0.12666420,0.00094636,-0.00033580,0.00168
 034,0.00074247,0.00030067,0.00185013,-0.00067003,0.01203552,0.80551832
 ,-0.00450614,-0.00075896,-0.00008516,0.00029147,0.00326663,-0.00010966
 ,0.00032054,0.00013462,0.00002948,0.00093413,0.00060639,0.00000288,-0.
 00128435,-0.00022397,-0.00000728,0.00103397,-0.00112724,0.00006366,-0.
 00074902,0.00033670,-0.00000378,-0.00095096,-0.00042322,-0.00000460,-0
 .00003971,-0.00003048,-0.00000672,-0.00009433,0.00092213,-0.00002100,0
 .00054962,-0.00045403,0.00000641,-0.00000686,0.00000435,-0.00000055,-0
 .00000869,-0.00001008,0.00000123,0.00393563,-0.00220189,0.00013340,-0.
 00018974,0.00296906,-0.00047612,-0.00041573,-0.00010134,0.00000477,-0.
 00295089,-0.00038368,-0.00106772,0.00313757,0.00043128,0.00509637,0.00
 316309,-0.00084968,0.00489476,-0.00372763,-0.00563050,0.00818815,0.000
 19552,-0.00013350,0.00001660,-0.00268195,0.00600116,0.00804743,0.00025
 094,0.00005580,-0.00003304,0.03482230,-0.00275516,-0.04163464,-0.00027
 871,-0.00000485,-0.00279566,-0.00027750,0.00009093,-0.00271137,-0.1630
 0667,0.01212971,0.12648688,0.00026830,0.00002777,0.00000910,-0.0000073
 4,-0.00020395,0.00001613,-0.00002608,-0.00000687,-0.00000600,-0.000060
 36,-0.00004245,0.00000132,0.00008647,0.00001900,0.00000209,-0.00006293
 ,0.00007577,-0.00000812,0.00004519,-0.00002693,0.00000290,0.00006053,0
 .00002142,-0.00000187,0.00000279,0.00000160,0.00000082,0.00001087,-0.0
 0005593,0.00000233,-0.00003507,0.00003345,-0.00000383,0.00000005,0.000
 00053,0.00000030,-0.00000004,0.00000149,-0.00000017,-0.00020514,0.0000
 6610,-0.00002698,-0.00013744,-0.00023599,0.00004288,0.00000172,0.00001
 775,-0.00000308,0.00054066,-0.00035332,0.00009588,-0.00054967,0.000184
 77,-0.00055271,-0.00004009,0.00165647,-0.00031894,0.00252133,0.0017670
 7,-0.00057222,0.00010190,0.00000648,0.00002312,-0.00524143,-0.00231468
 ,0.00052653,-0.00036892,-0.00004717,-0.00001706,-0.01494058,0.03521159
 ,0.01177540,-0.00010831,-0.00137830,0.00040958,0.00005491,0.00008130,0
 .00005724,-0.11729220,0.11827644,0.05810498,0.12527883,-0.00122016,-0.
 00020825,0.00002896,0.00006795,0.00089565,-0.00000940,0.00009081,0.000
 03123,-0.00000131,0.00025830,0.00016813,0.00000241,-0.00035191,-0.0000
 6715,-0.00000419,0.00027619,-0.00031001,0.00001370,-0.00020123,0.00010
 374,-0.00000287,-0.00026023,-0.00010682,0.00000035,-0.00001081,-0.0000
 0769,-0.00000215,-0.00003145,0.00024596,-0.00000751,0.00014958,-0.0001
 3072,0.00000864,-0.00000133,0.00000004,-0.00000069,-0.00000163,-0.0000
 0417,-0.00000002,0.00104580,-0.00055728,-0.00005034,0.00007142,0.00075
 996,-0.00013704,-0.00011349,-0.00003395,0.00000210,-0.00085486,0.00007
 818,0.00007432,0.00100267,-0.00051649,0.00077260,0.00060182,0.00003596
 ,-0.00006626,-0.00344448,0.00088325,0.00055659,-0.00002594,-0.00002932
 ,-0.00004243,-0.00148638,0.00209159,-0.00065646,0.00001796,0.00003504,
 0.00003223,0.00401321,0.00158327,0.00054880,0.00013745,-0.00021575,-0.
 00068022,-0.00014381,0.00026330,-0.00004828,0.12307254,-0.35725375,-0.
 10746228,-0.13590075,0.37110279,0.00148794,0.00024934,-0.00004101,-0.0
 0009865,-0.00107586,-0.00001239,-0.00010527,-0.00004511,0.00001012,-0.
 00030694,-0.00019919,-0.00000269,0.00042178,0.00007267,0.00000059,-0.0
 0034032,0.00037059,0.00000871,0.00024675,-0.00010971,0.00000056,0.0003
 1292,0.00014028,0.00000117,0.00001307,0.00001009,-0.00000028,0.0000300
 3,-0.00030352,0.00000678,-0.00018057,0.00014843,-0.00000350,0.00000237
 ,-0.00000165,0.00000013,0.00000297,0.00000317,0.00000036,-0.00131005,0
 .00072023,0.00005452,0.00004658,-0.00098614,-0.00005174,0.00013232,0.0
 0003645,-0.00000453,0.00099553,0.00078351,0.00009219,-0.00034373,-0.00
 014616,-0.00062379,-0.00174234,0.00009965,0.00147090,0.00144157,0.0013
 6920,-0.00035551,0.00000564,0.00003445,0.00000758,0.00077271,-0.001896
 69,0.00222362,-0.00010413,-0.00001345,-0.00021016,-0.01283687,0.006445
 22,-0.00424617,0.00033852,0.00008572,0.00004979,0.00001878,-0.00007784
 ,-0.00057472,0.07934731,-0.13722409,-0.05221844,-0.06063998,0.11835661
 ,0.05351305,0.00050569,0.00009815,0.00001154,-0.00002171,-0.00038626,0
 .00001981,-0.00004248,-0.00001115,-0.00000608,-0.00011289,-0.00007544,
 -0.00000043,0.00015508,0.00003178,0.00000121,-0.00011786,0.00013590,-0
 .00000883,0.00008631,-0.00004867,0.00000341,0.00011407,0.00004348,-0.0
 0000006,0.00000498,0.00000296,0.00000108,0.00001675,-0.00010485,0.0000
 0411,-0.00006461,0.00005912,-0.00000586,0.00000055,0.00000026,0.000000
 43,0.00000057,0.00000239,-0.00000015,-0.00042935,0.00019024,-0.0000241
 8,-0.00013032,-0.00016499,0.00005243,0.00007154,-0.00000471,-0.0000005
 5,0.00073561,0.00041758,0.00006945,-0.00033849,-0.00155177,-0.00033405
 ,-0.00073313,-0.00014200,-0.00060004,-0.00453030,0.00327847,0.00064654
 ,-0.00039388,0.00008543,-0.00002358,0.00287074,-0.00212202,-0.00084410
 ,0.00007001,-0.00000534,0.00003488,-0.02022909,-0.03192961,0.01150350,
 0.00010305,-0.00004026,0.00007064,-0.00029342,0.00145398,0.00057142,-0
 .15707240,-0.14778201,0.07323580,0.01018935,0.01290394,-0.00721636,0.1
 6971513,0.00115045,0.00019055,-0.00001390,-0.00006568,-0.00084221,0.00
 000649,-0.00008502,-0.00003032,0.00000292,-0.00024286,-0.00015780,-0.0
 0000167,0.00033037,0.00006182,0.00000471,-0.00026006,0.00029193,-0.000
 00880,0.00018799,-0.00009509,0.00000239,0.00024409,0.00010069,-0.00000
 038,0.00001033,0.00000731,0.00000083,0.00002919,-0.00023095,0.00000643
 ,-0.00014027,0.00012192,-0.00000752,0.00000134,0.,0.00000050,0.0000013
 7,0.00000387,-0.00000011,-0.00100112,0.00053493,0.00000931,-0.00003781
 ,-0.00077848,0.00013930,0.00010250,0.00002986,0.00000963,0.00077197,0.
 00026104,-0.00009655,-0.00051474,0.00030171,0.00012318,-0.00103575,-0.
 00038135,-0.00068299,0.00243102,0.00139501,0.00057649,0.00006021,0.000
 03451,-0.00002243,0.00321808,0.00065166,-0.00041629,0.00000391,-0.0000
 2448,0.00004262,-0.00080954,0.00696609,-0.00231375,0.00014076,0.000231
 87,0.00004314,-0.00005400,-0.00030890,0.00045528,-0.15246985,-0.317540
 20,0.09789326,-0.01703656,-0.01820721,0.01239971,0.16539414,0.32682102
 ,0.00147417,0.00025084,0.00000748,-0.00009279,-0.00106894,0.00000288,-
 0.00010540,-0.00004438,-0.00000499,-0.00030548,-0.00019860,-0.00000223
 ,0.00042089,0.00007242,-0.00000233,-0.00033989,0.00036961,0.00000298,0
 .00024597,-0.00010852,0.00000274,0.00031211,0.00013997,0.00000722,0.00
 001306,0.00000985,-0.00000038,0.00003022,-0.00030210,0.00000483,-0.000
 17943,0.00014738,-0.00000283,0.00000240,-0.00000173,0.00000037,0.00000
 295,0.00000314,0.00000003,-0.00127617,0.00073153,-0.00003211,0.0000652
 6,-0.00097032,-0.00005174,0.00013891,0.00003275,0.00000675,0.00089277,
 -0.00050757,-0.00000100,-0.00171164,0.00008762,0.00155692,-0.00039978,
 0.00017312,-0.00053841,0.00101806,0.00177916,0.00219876,-0.00009264,0.
 00004287,-0.00018249,0.00110059,-0.00155644,-0.00025407,-0.00001897,-0
 .00001581,0.00001894,-0.01373285,-0.00442664,-0.00444843,0.00000964,0.
 00006483,-0.00057990,0.00036969,-0.00027315,0.00003079,0.09861778,0.12
 419835,-0.05185531,-0.00891697,-0.01123426,0.00091739,-0.07715307,-0.1
 0814288,0.05320646,0.04824420,0.00038427,0.00000865,-0.17313918,0.1308
 1459,-0.00123348,-0.03680543,0.05580682,-0.00057186,-0.01252849,-0.014
 21066,-0.00001286,0.00826615,0.00499699,0.00001833,-0.01010086,0.00249
 012,-0.00005616,0.01553901,-0.00327983,0.00012630,0.00347379,0.0047996
 1,0.00003648,0.00027771,0.00018066,0.00000697,-0.00088495,-0.00539750,
 -0.00004724,-0.00663340,0.00584233,-0.00010659,-0.00068766,0.00010441,
 -0.00000015,0.00016444,-0.00005882,0.00000514,-0.02294504,0.01276609,-
 0.00004322,-0.02960872,-0.02522418,0.00029271,0.01639613,0.00280622,-0
 .00007677,0.00336821,-0.00825245,-0.00001060,-0.00076257,0.00146506,0.
 00000046,-0.00432701,-0.00034683,0.00004837,0.00144924,0.00132379,-0.0
 0003806,0.00002164,-0.00010359,-0.00000476,0.00176387,-0.00255937,-0.0
 0006498,0.00010034,-0.00001821,0.00000063,-0.00264998,0.00061347,-0.00
 023586,0.00001373,-0.00007063,0.00000213,-0.00013631,0.00007626,-0.000
 00055,0.00295214,-0.00025053,0.00085772,-0.00005584,0.00024109,-0.0002
 8122,-0.00009278,-0.00023172,-0.00028048,0.23536166,-0.03137919,-0.080
 80654,0.00066922,0.14372079,-0.39779299,0.00266325,0.05662881,-0.01261
 837,0.00046722,0.00215022,0.01530590,-0.00003297,-0.00722677,-0.007872
 33,-0.00001018,-0.00166342,-0.00616479,0.00006657,-0.00338922,-0.02772
 099,0.00012955,-0.00144055,-0.00017712,-0.00002242,0.00024221,0.000055
 68,-0.00000917,0.00002272,0.00214929,0.00003850,0.00217192,0.00106669,
 0.00001702,0.00028365,-0.00005161,-0.00000366,0.00050195,0.00014994,0.
 00000590,0.04732407,-0.01729172,0.00002290,-0.01321471,0.03443687,-0.0
 0026646,-0.01881824,-0.01675198,0.00010532,-0.00171191,-0.00123870,0.0
 0009025,0.00141973,-0.00308902,-0.00001643,0.00351998,0.00261149,-0.00
 003988,-0.00327474,-0.00235838,0.00010007,0.00026600,0.00005375,0.0000
 0056,-0.00429310,0.00376417,0.00013744,0.00005183,0.00028615,0.0000017
 2,0.00670849,-0.00155327,0.00054829,-0.00032893,0.00025422,-0.00000058
 ,-0.00039962,-0.00016591,0.00000599,-0.00739892,0.00067314,-0.00207442
 ,0.00013466,-0.00056974,0.00068253,0.00025476,0.00053399,0.00067892,-0
 .16102044,0.49986930,0.00025470,0.00055735,0.01733952,-0.00126299,0.00
 275923,-0.06455969,-0.00061763,0.00042652,0.01457883,-0.00007291,-0.00
 014060,0.00495257,0.00008352,0.00005543,-0.00093152,-0.00002833,0.0000
 8898,0.00392082,0.00009916,0.00012957,-0.00174868,0.00000784,0.0000055
 4,-0.00106820,-0.00000021,0.00000077,-0.00010395,0.00000661,-0.0000273
 4,-0.00020227,-0.00003612,0.00001436,0.00001684,-0.00000035,-0.0000014
 8,-0.00011619,-0.00000216,-0.00000003,-0.00006177,-0.00032634,0.000110
 83,-0.00372120,0.00008173,-0.00024729,0.00016003,0.00010421,0.00009014
 ,-0.00554271,0.00004217,0.00004022,0.00205302,-0.00001139,0.00002215,0
 .00006231,-0.00002775,-0.00002915,0.00009952,0.00001758,0.00001449,-0.
 00013478,-0.00000012,-0.00000203,0.00016996,0.00003686,-0.00002423,-0.
 00013787,-0.00000050,-0.00000209,0.00004781,-0.00003744,0.00001750,-0.
 00003871,0.00000149,0.00000104,-0.00000746,0.00000242,-0.00000108,-0.0
 0002735,0.00004916,-0.00000118,0.00004416,-0.00000404,0.00000747,-0.00
 000713,-0.00000746,-0.00000948,-0.00000117,0.00180386,-0.00373107,0.03
 794559,0.00367663,-0.00356584,0.00003663,-0.01915044,0.01881369,-0.000
 18819,0.02600144,-0.01355193,0.00020927,-0.01325789,0.00269393,-0.0001
 8843,0.00177085,-0.00122248,0.00002230,-0.00194994,0.00114961,-0.00001
 234,-0.13387369,0.08199792,-0.00112566,0.00960407,0.00965409,0.0001484
 4,-0.00012028,-0.00015839,-0.00000083,-0.00589432,-0.01765842,0.000043
 91,-0.03841648,0.06787871,-0.00076372,0.00052206,0.00012884,-0.0000054
 9,0.00355222,-0.00047106,0.00005502,-0.00115232,0.00056653,-0.00000583
 ,-0.00117987,-0.00125451,0.00002036,0.00379902,0.00058098,-0.00001804,
 0.00025602,-0.00070160,0.00000235,-0.00004117,0.00006572,0.00000007,-0
 .00030870,0.00002585,0.00000355,0.00006119,0.00007437,-0.00000154,0.00
 001843,-0.00002021,-0.00000079,0.00006515,-0.00015503,-0.00000317,0.00
 001142,0.00000996,0.00000026,-0.00010256,0.00002082,-0.00001188,-0.000
 00598,-0.00000150,0.00000011,-0.00002177,0.00000353,-0.00000003,0.0001
 2220,-0.00001008,0.00003775,-0.00000168,0.00001071,-0.00001220,-0.0000
 0272,-0.00001008,-0.00001190,-0.03370648,-0.04212473,0.00001778,0.5798
 2311,-0.00955089,-0.00306179,0.00000976,0.01966930,0.00102531,0.000090
 12,0.00309599,-0.05127249,0.00033872,-0.00049288,-0.00072271,0.0000406
 9,0.00055916,-0.00138233,0.00000599,0.00079513,-0.00094770,0.00000525,
 0.04286739,-0.29054110,0.00160685,-0.00342966,-0.00988501,-0.00007122,
 -0.00032856,-0.00038186,-0.00000043,-0.00353401,0.01277313,-0.00004984
 ,0.03526704,-0.01793865,0.00045751,-0.00030171,0.00007702,0.00001030,-
 0.00061881,0.00080965,0.00001818,0.00780906,-0.00463275,0.00001576,-0.
 00256961,0.00561173,-0.00004440,-0.00027919,-0.00065223,0.00001419,0.0
 0033156,-0.00029353,0.00000697,0.00027023,-0.00058560,-0.00000135,0.00
 068360,0.00052743,-0.00000996,-0.00078465,-0.00057375,0.00002297,0.000
 08781,-0.00001506,-0.00000206,-0.00099268,0.00089104,0.00003248,0.0000
 0732,0.00010175,0.00000055,0.00162206,-0.00034922,0.00013609,-0.000085
 20,0.00006013,0.00000009,-0.00010226,-0.00003904,0.00000180,-0.0018262
 1,0.00016266,-0.00050688,0.00003293,-0.00014098,0.00016680,0.00006252,
 0.00013076,0.00016571,-0.01295970,0.00601517,-0.00008413,-0.04537746,0
 .41475003,0.00007735,-0.00000580,-0.00078966,-0.00021787,0.00011611,-0
 .00217306,0.00012747,0.00018514,0.00805087,-0.00015252,0.00006171,0.00
 728591,0.00000670,0.00000101,-0.00019472,-0.00001650,0.00000946,0.0000
 0115,-0.00084968,0.00185427,-0.04730733,0.00010984,0.00014155,-0.00157
 345,0.00000123,-0.00000032,-0.00002630,-0.00011069,-0.00019005,0.00550
 630,-0.00061327,0.00069957,0.00844376,0.00000366,-0.00000618,-0.000439
 63,0.00010285,-0.00001477,-0.00372162,-0.00004794,0.00003131,0.0000400
 9,0.00000250,-0.00003852,0.00005496,0.00003127,0.00000857,0.00015105,-
 0.00000096,-0.00000311,-0.00003849,-0.00000167,0.00000284,-0.00000412,
 -0.00000707,-0.00000369,0.00001233,0.00000508,0.00000318,0.00000146,-0
 .00000095,-0.00000039,-0.00000908,0.00000736,-0.00000611,-0.00000571,0
 .00000002,-0.00000058,0.00000056,-0.00000915,0.00000343,0.00000232,-0.
 00000011,0.00000063,-0.00000061,-0.00000021,-0.00000071,0.00000121,0.0
 0001023,-0.00000120,0.00000433,-0.00000079,0.00000108,-0.00000128,-0.0
 0000118,-0.00000117,-0.00000228,-0.00015828,-0.00025550,0.00539502,0.0
 0380866,-0.00247146,0.03795183,0.00200665,0.00557082,-0.00005182,0.021
 22503,-0.02332071,0.00025169,-0.00736273,-0.00293936,-0.00003918,0.000
 25533,-0.00315715,0.00002479,0.00064912,0.00063893,0.00000009,0.000916
 88,0.00027661,-0.00000213,-0.02899045,0.02838916,-0.00033729,-0.002258
 61,-0.00305215,-0.00002460,-0.00013703,-0.00011678,0.00000008,-0.00040
 980,0.00429483,-0.00004945,0.00794846,-0.00437695,0.00008504,-0.000188
 87,-0.00000768,0.00000212,-0.00027106,0.00005911,0.00000047,-0.0035099
 2,0.00217912,-0.00000791,0.00206013,-0.00218300,0.00001251,-0.00359048
 ,-0.00032382,0.00000934,-0.00030326,0.00078608,-0.00000748,-0.00013461
 ,0.00029064,0.00000055,-0.00013653,-0.00033853,0.00000369,0.00039570,0
 .00026628,-0.00001077,-0.00007074,0.00003391,0.00000270,0.00051747,-0.
 00037356,-0.00001704,-0.00001545,-0.00006574,-0.00000062,-0.00083903,0
 .00018207,-0.00006662,0.00005423,-0.00003382,-0.00000026,0.00007840,0.
 00002019,-0.00000105,0.00093282,-0.00008335,0.00025561,-0.00001764,0.0
 0007046,-0.00008455,-0.00003326,-0.00006548,-0.00008382,-0.00257392,0.
 03013051,-0.00014726,-0.37959050,-0.03016380,-0.00213416,0.39349657,0.
 00317817,0.00234514,-0.00000951,0.00291620,-0.02243360,0.00015521,-0.0
 0444953,-0.00065713,-0.00004324,0.00113382,-0.00204375,0.00002280,0.00
 037144,0.00082153,-0.00000199,0.00012948,0.00035400,0.00000006,0.04764
 576,0.00385803,0.00027679,-0.00137869,-0.00088270,-0.00001646,0.000010
 65,0.00004669,0.00000075,0.00133400,0.00214802,-0.00001924,0.00322837,
 -0.00821046,0.00008732,-0.00014595,-0.00000331,0.00000004,-0.00019465,
 0.00013802,-0.00000558,-0.00263364,0.00187464,-0.00001369,0.00206756,-
 0.00146867,0.00001491,-0.00294469,-0.00030066,0.00000966,-0.00028206,0
 .00064460,-0.00000966,-0.00011522,0.00025840,0.00000170,-0.00012415,-0
 .00029285,0.00000198,0.00035762,0.00023411,-0.00001103,-0.00005898,0.0
 0002051,0.00000127,0.00045144,-0.00033290,-0.00001293,-0.00001222,-0.0
 0005848,-0.00000026,-0.00073479,0.00015509,-0.00006026,0.00004666,-0.0
 0002817,-0.00000003,0.00006553,0.00001581,-0.00000074,0.00081872,-0.00
 007375,0.00022500,-0.00001537,0.00006295,-0.00007388,-0.00002944,-0.00
 005812,-0.00007364,0.01070877,0.01027038,-0.00005085,-0.05849828,-0.05
 940158,-0.00014297,-0.00286089,0.07322971,-0.00002375,0.00002866,0.001
 50555,0.00011670,-0.00000435,0.00059690,-0.00002465,-0.00000900,-0.000
 34271,0.00001551,-0.00001504,-0.00077137,0.00000154,-0.00000513,-0.000
 05848,0.00000921,0.00000001,0.00010566,-0.00043898,0.00012866,-0.00206
 863,-0.00003129,-0.00002702,0.00018458,-0.00000064,-0.00000115,0.00001
 819,-0.00003642,0.00005003,0.00158834,-0.00000655,0.00002451,0.0029554
 2,-0.00000171,-0.00000014,-0.00007542,0.00001770,0.00000339,-0.0006319
 8,0.00000231,-0.00000977,-0.00044656,0.00000580,0.00000646,0.00040618,
 -0.00001350,-0.00000131,-0.00001693,-0.00000079,0.00000047,-0.00023809
 ,0.00000108,0.00000065,0.00003572,0.00000052,0.00000028,-0.00002156,-0
 .00000039,-0.00000076,-0.00001869,0.00000013,0.00000029,0.00000409,-0.
 00000029,0.00000056,0.00000902,0.00000012,0.00000011,0.00000336,0.0000
 0041,-0.00000046,0.00000466,0.00000013,-0.00000033,0.00000219,-0.00000
 006,0.00000019,0.00000780,-0.00000081,-0.00000084,-0.00000290,0.000000
 25,-0.00000036,0.00000115,0.00000072,0.00000136,0.00000197,-0.00002547
 ,0.00007150,-0.00862582,-0.00195759,0.00002997,-0.01665438,0.00237720,
 -0.00028022,0.02274174,0.01029589,0.00130216,0.00000872,-0.01035639,-0
 .00141958,0.00002645,0.00822579,-0.00323500,0.00015480,-0.00634441,0.0
 0244138,-0.00024757,0.00455346,0.00007098,0.00008165,-0.00178951,0.003
 98302,-0.00005753,-0.00135447,0.00300803,-0.00045102,-0.00605987,-0.00
 802879,0.00037362,-0.00009117,0.00004093,-0.00001287,-0.15791563,0.003
 59834,0.00015191,-0.00699638,0.01518516,0.00031969,-0.00003102,0.00182
 727,0.00005129,-0.00058859,-0.00166261,0.00001300,-0.00850548,0.004893
 24,-0.00002644,0.00227880,-0.00621870,0.00006032,0.00035944,0.00076049
 ,-0.00001924,0.00001143,0.00029367,-0.00001585,-0.00043730,0.00080936,
 0.00000517,-0.00093029,-0.00071765,0.00001383,0.00103531,0.00074318,-0
 .00003165,-0.00010881,0.00002443,0.00000352,0.00126565,-0.00112860,-0.
 00004249,-0.00000123,-0.00012839,-0.00000065,-0.00207494,0.00042062,-0
 .00016799,0.00010458,-0.00007650,-0.00000029,0.00012749,0.00005118,-0.
 00000211,0.00230123,-0.00020148,0.00064141,-0.00004418,0.00017734,-0.0
 0021098,-0.00008107,-0.00016568,-0.00021094,0.00280721,-0.00143150,0.0
 0002517,0.00514507,-0.00544929,0.00011294,-0.00110223,0.00003761,0.000
 01599,0.50253469,0.00005074,-0.00043326,0.00002119,0.00117354,-0.00056
 321,-0.00003337,-0.00151432,-0.00295806,-0.00000762,-0.00439804,-0.005
 08633,0.00018249,-0.00053388,0.00093839,-0.00003615,-0.00070525,-0.000
 12330,-0.00002413,0.00501000,-0.00446089,0.00001551,-0.01549433,0.0113
 9670,0.00020951,-0.00004881,-0.00004788,0.00000580,0.00867563,-0.07056
 663,0.00047136,0.02139973,0.00409522,-0.00095921,-0.00295149,-0.003462
 74,-0.00010241,0.00125300,-0.00247777,0.00010384,-0.00007903,-0.000028
 49,-0.00000330,0.00001807,-0.00006672,0.00000263,0.00010968,0.00003169
 ,0.00000327,-0.00002088,-0.00002342,-0.00000453,0.00000864,-0.00001875
 ,-0.00000054,0.00001979,0.00002505,0.00000104,-0.00002482,-0.00000891,
 0.00000329,0.00000489,0.00000353,0.00000016,-0.00003226,0.00001711,0.,
 0.00000006,0.00000298,0.00000029,0.00002352,-0.00001124,0.00000270,0.0
 0000357,-0.00000883,-0.00000061,0.00000284,0.00000829,-0.00000027,-0.0
 0002737,0.00000192,-0.00000318,0.00000382,-0.00000580,0.00000002,0.000
 00473,0.00000597,0.00000039,-0.00039981,0.00038391,0.00000289,0.000632
 30,0.00044363,0.00005657,0.00014460,-0.00026478,0.00001221,0.01990411,
 0.81080986,0.00000986,0.00001897,0.00023284,-0.00011240,-0.00001930,-0
 .00064615,0.00010838,0.00005424,-0.00101915,-0.00024546,0.00015281,0.0
 0681884,0.00000515,0.00003133,-0.00021537,0.00001936,-0.00005940,-0.00
 005838,-0.00028171,-0.00019028,0.00532623,-0.00049333,-0.00022344,0.00
 022444,0.00000770,0.00000566,0.00011001,-0.00013909,0.00022322,-0.0499
 8711,-0.00061304,0.00022495,-0.00211012,0.00020326,0.00022283,-0.00281
 892,0.00003869,-0.00040140,-0.00187677,-0.00001331,-0.00000423,-0.0000
 5990,0.00000365,0.00001263,0.00006305,0.00000194,0.00000080,0.00007471
 ,0.00000055,0.00000129,-0.00002559,-0.00000166,0.00000099,-0.00000311,
 -0.00000052,-0.00000057,-0.00000929,0.00000237,0.00000226,-0.00000298,
 -0.00000112,-0.00000227,0.00000169,0.00000136,-0.00000064,-0.00000203,
 0.00000008,0.00000012,0.00000626,0.00000357,-0.00000004,-0.00000268,-0
 .00000059,0.00000125,0.00000156,-0.00000067,-0.00000131,0.00000285,-0.
 00000396,0.00000025,-0.00000499,-0.00000035,0.00000039,0.00000273,0.00
 000018,-0.00000031,0.00000303,-0.00000690,-0.00002504,0.00004969,-0.00
 011239,0.00012186,0.00001166,0.00004528,0.00002218,-0.00011776,0.00231
 552,-0.00029791,0.76847441,-0.00304890,-0.00052752,-0.00004644,0.00354
 846,0.00030903,0.00017515,-0.00315237,0.00005464,-0.00007973,0.0012660
 3,-0.00145159,-0.00226715,-0.00135928,0.00027312,-0.00013700,0.0003158
 9,-0.00121798,0.00010034,0.00281959,-0.00112102,-0.00093070,-0.0059078
 3,0.00354466,0.00102374,0.00002678,-0.00002000,-0.00001897,-0.00334087
 ,-0.01141319,0.02684880,-0.00366891,-0.00174684,0.00014091,-0.00000383
 ,-0.00026759,0.00094331,-0.00001042,-0.00001586,0.00045135,0.00252654,
 -0.00148624,0.00002105,-0.00069550,0.00184858,-0.00003108,-0.00006429,
 -0.00021085,0.00000716,0.00000715,-0.00009369,0.00000143,0.00012998,-0
 .00024220,-0.00000022,0.00027549,0.00021466,0.00000452,-0.00031149,-0.
 00022416,0.00000826,0.00003332,-0.00000746,-0.00000111,-0.00038106,0.0
 0033985,0.00001092,0.00000025,0.00003996,0.00000098,0.00062511,-0.0001
 2652,0.00005295,-0.00003165,0.00002294,0.00000007,-0.00003867,-0.00001
 521,0.00000021,-0.00069409,0.00006075,-0.00019379,0.00001353,-0.000053
 64,0.00006351,0.00002466,0.00004997,0.00006354,-0.00103055,0.00058616,
 -0.00002228,-0.00170078,0.00177929,0.00000221,0.00039484,-0.00001972,0
 .00006062,-0.11572539,-0.03929612,0.10433322,0.09400117,-0.00076909,-0
 .00003642,-0.00002470,0.00061667,0.00023060,0.00013354,-0.00040981,0.0
 0075842,0.00014738,0.00127267,0.00002516,-0.00044716,-0.00038351,-0.00
 006440,0.00004779,0.00021683,-0.00026907,-0.00004215,-0.00104443,0.000
 57851,-0.00073941,-0.00145838,-0.00061862,-0.00044769,0.00001875,0.000
 01026,-0.00000817,0.00180084,0.00767669,0.00557693,-0.00129891,-0.0014
 0865,-0.00044115,0.00031041,0.00035443,0.00050689,-0.00012823,0.000735
 24,0.00064386,0.00063581,-0.00034657,0.00001159,-0.00016456,0.00045556
 ,-0.00001535,-0.00004812,-0.00006173,-0.00000298,-0.00000397,-0.000014
 65,0.00001019,0.00003227,-0.00005599,-0.00000152,0.00006414,0.00004619
 ,-0.00000175,-0.00006912,-0.00005233,0.00000144,0.00000608,-0.00000401
 ,-0.00000013,-0.00008440,0.00007902,0.00000258,0.00000014,0.00000881,0
 .00000039,0.00015063,-0.00002743,0.00001069,-0.00000945,0.00000943,0.0
 0000041,-0.00001101,-0.00000763,0.00000039,-0.00016607,0.00001479,-0.0
 0004837,0.00000168,-0.00001097,0.00001640,0.00000438,0.00001020,0.0000
 1658,-0.00012209,0.00007369,-0.00002598,-0.00024400,0.00006787,-0.0000
 4403,-0.00000943,0.00000087,0.00002400,-0.03747886,-0.12036272,0.11349
 777,0.04834884,0.12374843,0.00188233,0.00026634,0.00002106,-0.00199600
 ,-0.00023950,-0.00015296,0.00163558,-0.00038239,0.00005278,-0.00089430
 ,0.00133870,0.00062528,0.00103587,-0.00023520,0.00011069,-0.00024478,0
 .00090784,-0.00005069,-0.00106998,0.00038883,0.00039330,0.00640187,-0.
 00206158,0.00014631,-0.00003253,0.00000287,-0.00000469,-0.00226612,0.0
 0831411,-0.00808096,0.00263308,0.00114351,0.00151293,-0.00020941,-0.00
 030307,-0.00050270,-0.00012930,-0.00015982,-0.00049865,-0.00158003,0.0
 0093565,-0.00000637,0.00044701,-0.00118803,0.00001651,0.00005106,0.000
 13674,-0.00000824,-0.00001579,0.00005232,-0.00000491,-0.00007457,0.000
 14402,0.00000066,-0.00016491,-0.00012623,0.00000210,0.00018382,0.00013
 519,-0.00000195,-0.00001822,0.00000929,-0.00000058,0.00022809,-0.00020
 771,-0.00000507,-0.00000019,-0.00002500,-0.00000309,-0.00039076,0.0000
 7636,-0.00003098,0.00002217,-0.00001946,-0.00000105,0.00002688,0.00001
 477,-0.00000161,0.00043459,-0.00003813,0.00012483,-0.00000620,0.000030
 83,-0.00004194,-0.00001357,-0.00002891,-0.00004240,0.00062637,-0.00033
 780,0.00003288,0.00121081,-0.00115372,0.00002021,-0.00026329,-0.000027
 10,-0.00003936,0.09764878,0.11252555,-0.35775934,-0.11918793,-0.139900
 00,0.42002908,-0.00273252,-0.00022517,-0.00000122,0.00244092,0.0004889
 7,-0.00000617,-0.00196639,0.00136260,-0.00001703,0.00272877,0.00090049
 ,0.00017623,-0.00114352,-0.00011463,-0.00003826,0.00060407,-0.00129039
 ,0.00001225,0.00068341,0.00046386,0.00029073,-0.00582766,-0.00085692,-
 0.00049847,0.00005342,0.00000034,0.00000820,-0.00009685,0.03105094,-0.
 00311756,-0.00794865,-0.00422462,-0.00040610,-0.00082308,0.00239875,0.
 00004875,0.00034776,0.00029881,-0.00006721,0.00232239,-0.00137927,0.00
 000174,-0.00067570,0.00177162,-0.00001349,-0.00009947,-0.00020422,0.00
 000752,0.00004870,-0.00008216,0.00000561,0.00010326,-0.00020775,-0.000
 00439,0.00024212,0.00018520,-0.00000598,-0.00027190,-0.00019463,0.0000
 1041,0.00002972,-0.00000609,-0.00000073,-0.00033704,0.00030029,0.00001
 303,0.00000022,0.00003647,-0.00000033,0.00054899,-0.00011505,0.0000426
 7,-0.00002751,0.00001895,0.00000006,-0.00003345,-0.00001218,0.00000058
 ,-0.00061211,0.00005377,-0.00016925,0.00001211,-0.00004760,0.00005577,
 0.00002197,0.00004445,0.00005560,-0.00082825,0.00031545,-0.00001126,-0
 .00228522,0.00195795,-0.00002041,0.00048959,0.00017446,-0.00000270,-0.
 09773646,0.07431460,-0.00908587,0.01660950,-0.00991688,0.00590808,0.07
 969773,0.00182983,0.00032370,-0.00001103,-0.00210241,-0.00001857,-0.00
 001590,0.00162408,-0.00000800,0.00008010,-0.00082314,0.00228432,-0.000
 16665,0.00089109,-0.00013021,0.00002448,-0.00017530,0.00067740,-0.0000
 1655,-0.00202796,-0.00075734,-0.00011744,0.00001164,-0.00256986,-0.000
 33437,0.00002828,0.00004436,0.00000265,-0.00483723,-0.01679852,0.00275
 375,0.00795788,0.00249284,0.00009657,0.00150916,0.00196883,0.00015241,
 -0.00031628,0.00056808,0.00010187,-0.00147246,0.00087886,0.00000042,0.
 00039807,-0.00106155,0.00000554,0.00002712,0.00012179,0.00000068,0.000
 00463,0.00005336,0.00000189,-0.00007608,0.00013919,-0.00000247,-0.0001
 5986,-0.00012528,0.00000071,0.00017707,0.00012972,-0.00000325,-0.00001
 750,0.00000785,0.00000100,0.00021893,-0.00019558,-0.00000584,-0.000001
 09,-0.00002304,0.00000004,-0.00037033,0.00007221,-0.00002996,0.0000200
 3,-0.00001701,-0.00000010,0.00002505,0.00001287,-0.00000081,0.00040947
 ,-0.00003538,0.00011518,-0.00000635,0.00002924,-0.00003805,-0.00001305
 ,-0.00002807,-0.00003871,0.00059618,-0.00024227,-0.00000041,0.00175091
 ,-0.00098922,-0.00000883,-0.00034873,-0.00016451,0.00000601,0.07390801
 ,-0.42745061,0.04284666,0.00345283,-0.02373905,0.01371849,-0.08533445,
 0.50059529,-0.00015417,-0.00003498,-0.00001936,0.00021804,-0.00000085,
 -0.00003211,-0.00019778,-0.00009092,-0.00007646,-0.00003055,-0.0000473
 0,0.00001362,-0.00005915,0.00002962,0.00009012,-0.00001542,-0.00006286
 ,-0.00005744,0.00038361,0.00020515,-0.00020218,0.00007776,0.00016718,0
 .00013840,0.00000017,-0.00000239,-0.00000439,0.00090312,0.00236604,0.0
 0785440,-0.00115638,-0.00025097,0.00086144,-0.00000068,-0.00007593,-0.
 00027901,-0.00001397,0.00001871,0.00017055,0.00012679,-0.00007989,0.00
 000147,-0.00003745,0.00009496,-0.00000033,0.00000288,-0.00000888,-0.00
 000460,0.00000168,-0.00000387,0.00000073,0.00000636,-0.00001142,0.0000
 0442,0.00001255,0.00000869,-0.00000149,-0.00001560,-0.00001255,-0.0000
 0203,0.00000175,-0.00000058,-0.00000108,-0.00001790,0.00001765,0.00000
 231,-0.00000005,0.00000246,0.00000055,0.00003173,-0.00000543,0.0000042
 8,-0.00000208,0.00000216,-0.00000027,-0.00000273,-0.00000175,-0.000000
 63,-0.00003612,0.00000306,-0.00000970,0.00000042,-0.00000238,0.0000032
 5,0.00000078,0.00000226,0.00000276,-0.00008044,0.00003499,0.00000596,-
 0.00023496,0.00013571,-0.00012644,0.00004712,0.00002503,-0.00001124,-0
 .00890611,0.04255432,-0.07865022,-0.00152740,0.04314805,-0.00897904,0.
 01037791,-0.05274103,0.07527427,-0.00290057,-0.00050042,0.00002638,0.0
 0336499,0.00023074,-0.00013495,-0.00295127,-0.00007665,0.00005667,0.00
 078704,-0.00185154,0.00209731,-0.00141049,0.00037605,0.00014577,0.0002
 5935,-0.00128436,-0.00005341,0.00303743,-0.00152696,0.00077454,-0.0068
 5687,0.00431563,-0.00139659,0.00003130,-0.00002015,0.00002464,-0.00389
 599,-0.01894498,-0.02347653,-0.00290164,-0.00110490,-0.00032944,0.0001
 2316,-0.00028593,-0.00081210,-0.00007860,-0.00040873,-0.00013492,0.002
 41430,-0.00144040,0.00000425,-0.00067707,0.00179476,-0.00001038,-0.000
 05391,-0.00020144,0.00000228,0.00001598,-0.00009013,0.00000980,0.00012
 292,-0.00023142,-0.00000352,0.00026239,0.00020538,-0.00000959,-0.00029
 833,-0.00021464,0.00001050,0.00003238,-0.00000745,-0.00000107,-0.00036
 582,0.00032593,0.00001267,-0.00000048,0.00003936,-0.00000061,0.0006015
 3,-0.00012176,0.00004793,-0.00003089,0.00002258,0.00000011,-0.00003766
 ,-0.00001507,0.00000075,-0.00066749,0.00005854,-0.00018597,0.00001288,
 -0.00005137,0.00006122,0.00002342,0.00004798,0.00006123,-0.00102691,0.
 00057975,-0.00000255,-0.00176272,0.00194946,-0.00006505,0.00045240,-0.
 00001163,-0.00005829,-0.12256297,-0.06716692,-0.09597121,0.01850429,0.
 00032500,0.00819268,0.01639571,0.00327717,0.00029269,0.10199883,-0.001
 08893,-0.00013408,0.00002631,0.00110216,0.00030001,-0.00011428,-0.0007
 9838,0.00056172,-0.00019908,0.00111136,-0.00026049,0.00046302,-0.00055
 333,0.00003176,-0.00001764,0.00021042,-0.00042108,0.00005675,-0.000358
 52,0.00085089,0.00083117,-0.00302992,0.00021214,0.00059076,0.00002639,
 0.00001369,0.00000220,0.00205372,0.00247722,-0.00903636,-0.00135943,-0
 .00167300,0.00155195,0.00048411,0.00049179,-0.00059134,-0.00011865,0.0
 0136459,-0.00087458,0.00090946,-0.00050959,-0.00000185,-0.00024261,0.0
 0065752,0.00000592,-0.00004745,-0.00008095,-0.00000286,-0.00000186,-0.
 00002094,-0.00000673,0.00004763,-0.00008148,0.00000602,0.00008741,0.00
 006414,0.00000243,-0.00010014,-0.00007915,-0.00000171,0.00000841,-0.00
 000722,-0.00000129,-0.00011977,0.00011597,0.00000160,-0.00000050,0.000
 01318,-0.00000063,0.00022514,-0.00003683,0.00002001,-0.00001564,0.0000
 1736,0.00000026,-0.00001864,-0.00001415,0.00000069,-0.00024750,0.00002
 136,-0.00007275,0.00000156,-0.00001522,0.00002455,0.00000527,0.0000141
 2,0.00002471,-0.00028412,0.00017604,0.00002648,-0.00049657,0.00029608,
 0.00002337,0.00002269,-0.00000006,-0.00003816,-0.06564957,-0.18975706,
 -0.15624047,-0.00151720,0.01218359,0.00640072,-0.01209848,-0.03597288,
 -0.03538177,0.08184529,0.20916578,-0.00161801,-0.00020016,0.00001657,0
 .00166992,0.00021108,-0.00006469,-0.00133405,0.00045459,0.00005877,0.0
 0093530,-0.00143005,0.00017644,-0.00096847,0.00020065,0.00009915,0.000
 23474,-0.00081088,-0.00002434,0.00081841,-0.00043436,0.00004194,-0.006
 35824,0.00202711,-0.00006932,0.00002927,-0.00000415,-0.00000725,0.0020
 2715,-0.01092637,-0.00355176,-0.00118125,-0.00085122,0.00161793,0.0001
 6155,0.00026481,-0.00021451,0.00029301,0.00021523,-0.00010290,0.001367
 82,-0.00080748,0.00000275,-0.00039450,0.00103040,-0.00000575,-0.000050
 58,-0.00012060,-0.00000468,0.00002176,-0.00004647,0.00000006,0.0000626
 2,-0.00012314,0.00000262,0.00014136,0.00010943,-0.00000161,-0.00015925
 ,-0.00011613,0.00000518,0.00001687,-0.00000546,-0.00000259,-0.00019739
 ,0.00017758,0.00000780,-0.00000012,0.00002162,-0.00000224,0.00033009,-
 0.00006665,0.00002623,-0.00001792,0.00001425,-0.00000062,-0.00002160,-
 0.00001013,-0.00000021,-0.00036711,0.00003234,-0.00010107,0.00000602,-
 0.00002711,0.00003314,0.00001190,0.00002538,0.00003330,-0.00051209,0.0
 0028988,0.00000881,-0.00096470,0.00096245,-0.00000356,0.00021113,0.000
 00867,-0.00001982,-0.09161600,-0.15470944,-0.28599368,-0.00989787,-0.0
 2160078,-0.04687045,-0.00355006,-0.00637559,0.00403202,0.11085862,0.19
 252641,0.33088038,0.01642796,0.00357837,0.00008304,-0.00007360,0.00384
 975,-0.00002581,-0.00147711,0.00116077,-0.00000272,-0.00525215,0.00071
 854,-0.00008663,-0.01475494,-0.01935134,-0.00000917,-0.08378280,-0.028
 11491,-0.00004494,0.00197132,-0.00093726,0.00002456,0.00203453,0.00098
 795,0.00003407,-0.00430985,-0.00127531,0.00002834,-0.00032029,-0.00147
 813,0.00002807,-0.00034875,0.00214614,-0.00004406,-0.00025264,-0.00002
 587,0.00000090,-0.00000809,0.00001607,-0.00000040,0.00497061,-0.008329
 97,-0.00001047,-0.00514449,0.00419059,-0.00001324,0.00059751,-0.000818
 55,0.00001502,0.00066085,-0.00000849,0.00000701,-0.00005306,-0.0002455
 3,-0.00000442,0.00046950,0.00055015,-0.00000891,-0.00030493,-0.0003425
 9,0.00000407,0.00004314,-0.00002010,0.00000009,-0.00058730,0.00036030,
 0.00002718,0.00058441,-0.00046379,0.00000272,0.00086415,-0.00022507,0.
 00008269,-0.00004138,0.00003878,0.00000195,-0.00006210,-0.00001923,0.0
 0000192,-0.00096964,0.00005587,-0.00028440,0.00001818,-0.00007117,0.00
 009306,0.00002124,0.00007296,0.00009020,-0.00047012,0.00450752,-0.0000
 3433,-0.00033041,0.00139528,-0.00000900,-0.00028753,-0.00046173,-0.000
 00040,-0.00257716,0.00000490,0.00003048,0.00080226,0.00016893,-0.00054
 919,0.00081387,-0.00039862,0.00004801,0.00082459,0.00026974,0.00047379
 ,0.71564840,-0.00244761,-0.02176817,0.00008309,0.00292904,-0.00239413,
 0.00003140,-0.00124733,0.00043561,-0.00000999,0.00251224,-0.00421633,0
 .00004265,-0.01324548,0.00955791,-0.00013412,-0.03480479,-0.12709764,0
 .00016050,0.00357696,-0.00252386,0.00003930,0.00369867,0.00391688,0.00
 000502,0.00449368,-0.00026651,0.00000577,0.00011584,-0.00249947,0.0000
 7219,-0.00058884,0.00336718,-0.00007549,-0.00022724,-0.00003369,0.0000
 0790,-0.00000008,0.00003681,0.00000112,-0.00240277,-0.00231597,-0.0000
 2077,0.00197328,0.00443213,-0.00002581,-0.00069963,0.00003319,0.000010
 33,-0.00026354,-0.00001148,0.00002439,0.00035499,-0.00090098,-0.000012
 49,0.00072676,0.00045868,-0.00002273,-0.00107154,-0.00061262,0.0000329
 0,0.00012672,-0.00003379,-0.00000534,-0.00110673,0.00108553,0.00004273
 ,0.00008732,0.00041995,0.00000803,0.00194201,-0.00032700,0.00015165,-0
 .00012302,0.00007365,0.00000111,-0.00014667,-0.00004884,0.00000210,-0.
 00215068,0.00019604,-0.00059146,0.00003901,-0.00016330,0.00019272,0.00
 007981,0.00015506,0.00019658,-0.00142104,0.00571604,-0.00005251,-0.000
 72246,0.00264820,-0.00001675,-0.00047054,-0.00087272,0.00000435,-0.004
 72029,0.00033271,0.00006792,0.00149402,0.00024405,-0.00100945,0.001446
 19,-0.00084852,0.00008643,0.00153745,0.00043848,0.00086093,-0.13459909
 ,0.56500525,0.00002995,0.00012008,-0.00103230,-0.00002402,0.00006200,0
 .00231932,0.00001858,0.00000004,-0.00085226,-0.00005972,0.00005941,0.0
 0907698,-0.00008807,-0.00012462,0.00140152,0.00000969,0.00007641,-0.04
 988172,-0.00001496,-0.00000477,-0.00051406,-0.00000817,-0.00001421,-0.
 00005052,-0.00000374,-0.00002631,-0.00458233,0.00000661,0.00002024,-0.
 00050943,0.00001573,-0.00000845,0.00010745,-0.00000538,0.00000142,0.00
 018876,0.00000006,0.00000038,0.00001192,0.00005717,-0.00001675,-0.0055
 3103,-0.00002050,0.00003212,-0.00009744,-0.00000615,-0.00000238,0.0004
 5948,0.00000278,-0.00000877,-0.00013331,-0.00000026,-0.00000208,0.0001
 2087,0.00000510,0.00000771,-0.00031372,-0.00000453,0.00000199,-0.00008
 061,0.00000150,0.00000084,0.00002685,-0.00000748,0.00000162,-0.0000229
 5,-0.00000921,-0.00000751,-0.00038964,0.00000067,-0.00000273,0.0000671
 8,0.00000270,-0.00000538,0.00000482,0.00000367,0.00000464,0.00002502,-
 0.00000412,-0.00000217,-0.00001693,0.00000412,-0.00000355,0.00000483,0
 .00000410,0.00000382,0.00001202,0.00001771,-0.00002144,0.00034371,0.00
 000163,-0.00000471,0.00010892,0.00000211,0.00000237,0.00003789,0.00000
 154,0.00000835,0.00009499,0.00001530,-0.00000273,-0.00005247,0.0000000
 7,0.00000571,-0.00003569,-0.00002297,-0.00001084,-0.00005020,0.0003164
 5,0.00011671,0.78379091,-0.00268857,0.00067042,0.00008998,-0.00036962,
 -0.00061378,0.00025897,0.00031291,-0.00033756,0.00008934,-0.00005498,0
 .00100270,0.00235206,-0.00036245,-0.00469578,-0.00012731,-0.00497060,0
 .00109018,-0.01989743,-0.00067030,0.00053676,-0.00020128,-0.00070630,-
 0.00096263,0.00008869,0.00048680,0.00007503,-0.00150034,-0.00004935,0.
 00045710,-0.00018583,0.00000223,-0.00080844,0.00002424,0.00009160,0.00
 001681,0.00003613,0.00000475,-0.00000910,0.00000924,-0.00121149,0.0026
 6494,0.00178953,0.00165967,-0.00178317,-0.00032886,-0.00014124,0.00028
 258,-0.00020113,-0.00018228,0.00003656,0.00017025,0.00002325,0.0001585
 0,-0.00002620,-0.00021095,-0.00050389,0.00005808,0.00014351,0.00016273
 ,0.00001449,-0.00002515,0.00002200,-0.00000800,0.00026552,-0.00003660,
 0.00002908,-0.00124990,0.00100924,0.00032874,-0.00037367,0.00007184,-0
 .00004651,0.00001461,-0.00000775,-0.00000047,0.00001734,-0.00000108,0.
 00000641,0.00039202,-0.00000541,0.00011833,-0.00001251,0.00003222,-0.0
 0003806,-0.00000808,-0.00003423,-0.00003936,0.00026907,-0.00129445,0.0
 0003235,0.00020348,-0.00064253,0.00003677,0.00002537,0.00016509,0.0000
 0116,0.00117237,-0.00005925,-0.00002202,-0.00037510,-0.00007449,0.0002
 6320,-0.00036594,0.00019494,-0.00002634,-0.00039233,-0.00012026,-0.000
 22381,-0.18880827,-0.00119560,-0.17397585,0.20198894,-0.00020249,0.000
 77495,0.00042230,0.00023866,0.00200028,0.00072052,-0.00013625,-0.00025
 666,-0.00020411,-0.00055282,0.00126518,0.00214724,0.00011163,-0.005125
 50,-0.00082150,-0.01372096,0.00725185,-0.01649774,-0.00074046,0.000817
 84,-0.00007591,-0.00091629,-0.00102108,0.00010667,-0.00059296,-0.00001
 570,-0.00072347,-0.00012511,0.00064037,-0.00027336,0.00010723,-0.00075
 475,0.00004249,0.00004768,0.00001707,0.00002749,-0.00000957,-0.0000126
 2,0.00000564,0.00026454,-0.00186309,-0.00272238,-0.00184314,-0.0009193
 2,0.00020312,0.00040748,-0.00014183,0.00020623,0.00015270,0.00003530,-
 0.00004954,-0.00017160,0.00029285,-0.00005345,-0.00019381,0.00010820,-
 0.00002912,0.00038606,0.00017870,0.00000926,-0.00004225,-0.00000029,0.
 00000585,0.00033878,-0.00047084,-0.00004082,0.00059652,-0.00078241,-0.
 00035282,-0.00063190,0.00010753,-0.00004795,0.00004378,-0.00002521,-0.
 00000027,0.00005735,0.00001874,-0.00000265,0.00072398,-0.00008129,0.00
 019169,-0.00001048,0.00005478,-0.00006292,-0.00003108,-0.00005055,-0.0
 0006393,0.00020386,-0.00187021,0.00003074,0.00009784,-0.00078364,0.000
 01732,0.00023664,0.00030580,-0.00001602,0.00126435,-0.00009356,-0.0000
 1237,-0.00039594,-0.00007491,0.00026709,-0.00037674,0.00023228,-0.0000
 3101,-0.00042208,-0.00012263,-0.00023300,-0.00367319,-0.07985806,-0.00
 252799,-0.01122875,0.05857168,-0.00168438,0.00004885,0.00038340,0.0000
 6491,0.00025788,0.00013873,0.00008991,-0.00031731,0.00009159,-0.000333
 32,0.00101965,0.00054055,-0.00222572,-0.00576606,0.00028702,-0.0055926
 7,0.00714437,-0.00499757,-0.00052796,0.00052592,-0.00010304,-0.0007229
 3,-0.00092226,0.00005636,0.00046568,-0.00018649,-0.00054016,-0.0001577
 4,0.00052346,-0.00006329,0.00007850,-0.00063479,0.00002696,0.00006854,
 0.00002329,-0.00000317,-0.00000606,-0.00001248,-0.00000005,-0.00027708
 ,0.00071209,0.00142780,-0.00007575,-0.00144492,-0.00019590,0.00018404,
 0.00007302,-0.00012479,-0.00005423,0.00001117,0.00012759,-0.00007153,0
 .00018885,-0.00000034,-0.00016666,-0.00006022,-0.00000597,0.00025186,0
 .00015069,-0.00001409,-0.00002892,0.00000273,-0.00000988,0.00028107,-0
 .00028463,0.00000926,0.00036736,-0.00063681,-0.00036332,-0.00045775,0.
 00008078,-0.00003744,0.00002948,-0.00001693,-0.00000091,0.00003891,0.0
 0001115,-0.00000851,0.00052671,-0.00005056,0.00015206,-0.00000984,0.00
 004080,-0.00004957,-0.00002060,-0.00003956,-0.00005333,0.00010249,-0.0
 0145694,-0.00001220,0.00009788,-0.00062492,0.00002838,0.00013326,0.000
 20756,-0.00001806,0.00102269,-0.00006596,-0.00006749,-0.00032556,-0.00
 006092,0.00024824,-0.00031419,0.00017355,-0.00000276,-0.00034172,-0.00
 010813,-0.00017894,-0.16788986,0.00091512,-0.33011838,0.20743286,-0.00
 265281,0.38194555,0.00137825,0.00042591,-0.00001704,-0.00071295,-0.000
 56941,0.00001443,-0.00031369,-0.00059561,-0.00000355,0.00255529,-0.001
 92358,0.00002394,-0.00463506,-0.00264004,-0.00003643,0.00005646,-0.005
 40223,-0.00000282,0.00027429,-0.00017377,0.00001347,0.00015197,0.00033
 836,-0.00000397,0.00330944,-0.00186044,0.00002196,-0.00004466,0.000001
 43,0.00000579,0.00003130,0.00004870,-0.00001171,0.00007908,0.00002070,
 0.00000146,-0.00000210,-0.00000581,0.00000060,-0.00102122,0.00154839,-
 0.00000328,0.00109165,-0.00067790,0.00000225,-0.00006464,0.00016739,-0
 .00000271,-0.00017394,0.00004015,-0.00000015,0.00004376,-0.00002762,0.
 00000070,-0.00002828,-0.00005332,0.00000127,-0.00004012,0.00002260,0.0
 0000273,0.00000400,0.00000030,-0.00000068,0.00001300,0.00003177,-0.000
 00324,-0.00022789,0.00023615,0.00000220,0.00000709,0.00000688,-0.00000
 363,-0.00000365,-0.00000176,-0.00000015,-0.00000041,-0.00000097,-0.000
 00048,-0.00000881,0.00000763,0.00000135,0.00000026,-0.00000122,-0.0000
 0016,0.00000360,-0.00000077,0.00000150,0.00025614,0.00019636,-0.000003
 44,0.00001990,-0.00010814,0.00000029,-0.00010167,-0.00003602,-0.000000
 83,0.00001509,0.00005237,-0.00000316,-0.00000565,-0.00001401,0.0000115
 8,-0.00001189,-0.00002831,0.00000147,-0.00000349,-0.00001741,-0.000011
 62,-0.24685424,0.17706856,-0.00052929,-0.01891356,0.02866288,-0.013337
 97,0.28290381,-0.00945040,-0.00281453,-0.00004983,0.00229148,0.0001041
 2,-0.00000493,0.00003198,-0.00064607,-0.00000141,0.00132277,0.00085510
 ,0.00001795,-0.00095444,-0.00396383,0.00000456,0.02611875,-0.02211504,
 0.00011681,-0.00089437,0.00095638,-0.00000766,-0.00128119,-0.00100843,
 -0.00000616,-0.00049899,-0.00246019,-0.00001934,-0.00009149,0.00087219
 ,-0.00002303,0.00009260,-0.00109842,0.00002143,0.00009068,0.00003112,-
 0.00000067,-0.00001617,-0.00001496,-0.00000021,-0.00215690,0.00223754,
 0.00000444,0.00057422,-0.00277232,0.00001864,0.00013785,0.00020288,-0.
 00000568,-0.00024576,0.00001813,-0.00000867,-0.00008537,0.00032622,0.0
 0000515,-0.00033277,-0.00019847,0.00000663,0.00043823,0.00027003,-0.00
 001500,-0.00005514,0.00001593,0.00000195,0.00052948,-0.00050805,-0.000
 01766,0.00012545,-0.00021879,-0.00000278,-0.00089657,0.00019200,-0.000
 07188,0.00005484,-0.00003367,-0.00000024,0.00006430,0.00002308,-0.0000
 0074,0.00100544,-0.00009444,0.00027710,-0.00001820,0.00007603,-0.00009
 075,-0.00003662,-0.00007176,-0.00009199,-0.00020930,-0.00365696,0.0000
 3056,-0.00000909,-0.00102095,0.00000420,0.00046432,0.00045938,0.000000
 71,0.00170127,-0.00012125,-0.00002029,-0.00053936,-0.00009064,0.000360
 16,-0.00051731,0.00031225,-0.00003351,-0.00054863,-0.00016028,-0.00030
 707,0.17995496,-0.27197037,0.00057326,0.01362152,0.00426674,0.00279650
 ,-0.22354679,0.29961217,0.00001379,0.00000575,0.00145108,0.00000091,-0
 .00000566,-0.00007659,-0.00000686,-0.00000329,-0.00001800,0.00000601,-
 0.00001533,-0.00020045,-0.00001571,-0.00000093,0.00026522,-0.00005675,
 0.00006669,0.00740574,0.00000549,0.00000101,0.00000834,0.00000332,0.00
 000515,0.00008569,0.00002378,-0.00002237,0.00013516,0.00000074,-0.0000
 0257,-0.00003517,-0.00000307,0.00000294,0.00002379,0.00000088,0.000000
 28,-0.00000236,-0.00000053,-0.00000045,-0.00000297,-0.00000495,-0.0000
 0025,0.00058383,-0.00000041,-0.00000155,0.00018111,0.00000137,0.,-0.00
 008039,0.00000110,0.00000093,0.00004609,-0.00000056,0.00000031,-0.0000
 6454,0.00000064,-0.00000012,0.00007999,-0.00000034,-0.00000037,0.00002
 853,-0.00000011,0.00000062,-0.00000886,-0.00000045,-0.00000002,-0.0000
 0304,0.00000097,0.00000103,0.00004337,-0.00000062,-0.00000055,-0.00000
 845,0.00000003,-0.00000034,-0.00000128,0.,0.00000053,-0.00000582,0.000
 00084,0.00000089,0.00000328,-0.00000021,-0.00000016,-0.00000163,-0.000
 00065,-0.00000031,-0.00000324,-0.00000191,0.00000629,-0.00014198,0.000
 00010,0.00000079,-0.00002232,-0.00000069,-0.00000084,-0.00001353,-0.00
 000352,-0.00000131,-0.00003207,0.00000439,-0.00000250,0.00001351,0.000
 00150,-0.00000428,0.00000300,-0.00000348,0.00000412,0.00001323,-0.0005
 7652,0.00059863,-0.07484331,-0.03317800,0.02374944,-0.00290650,0.00069
 488,-0.00066799,0.07083704,-0.00272047,0.00065109,-0.00014582,-0.00035
 043,-0.00060841,-0.00026982,0.00030907,-0.00033800,-0.00008787,-0.0000
 2137,0.00098082,-0.00236036,-0.00035329,-0.00468616,0.00017471,-0.0050
 3777,0.00117453,0.01987387,-0.00067194,0.00054380,0.00018736,-0.000710
 89,-0.00096493,-0.00008352,0.00046795,0.00008266,0.00149635,-0.0000560
 8,0.00045840,0.00016574,0.00000033,-0.00081077,0.00000368,0.00009384,0
 .00001590,-0.00003606,0.00000525,-0.00000959,-0.00000952,-0.00116498,0
 .00261298,-0.00177128,0.00165625,-0.00177263,0.00034392,-0.00014197,0.
 00028392,0.00019061,-0.00018412,0.00003353,-0.00017401,0.00002209,0.00
 015947,0.00003227,-0.00021124,-0.00050904,-0.00005508,0.00014182,0.000
 16473,-0.00002563,-0.00002474,0.00002268,0.00000790,0.00026549,-0.0000
 3395,-0.00005238,-0.00127760,0.00098341,-0.00031462,-0.00037628,0.0000
 6978,-0.00001681,0.00001591,-0.00000965,-0.00000016,0.00001851,0.00000
 165,-0.00000690,0.00039438,-0.00000721,0.00011457,-0.00001241,0.000031
 99,-0.00003799,-0.00000650,-0.00003185,-0.00003499,0.00026974,-0.00130
 711,-0.00000977,0.00020364,-0.00064582,-0.00002901,0.00002633,0.000166
 29,-0.00000200,0.00118142,-0.00006257,-0.00002187,-0.00037822,-0.00006
 526,0.00026326,-0.00037062,0.00019677,-0.00001953,-0.00038940,-0.00012
 589,-0.00022671,-0.18968172,-0.00054757,0.17426717,0.01506919,0.002075
 89,-0.01661372,-0.01902646,0.01376470,0.03309460,0.20302728,-0.0001893
 1,0.00075432,-0.00044290,0.00022929,0.00196891,-0.00073751,-0.00014062
 ,-0.00025532,0.00020025,-0.00051941,0.00123675,-0.00214293,0.00012199,
 -0.00507411,0.00088213,-0.01374476,0.00731172,0.01636728,-0.00073572,0
 .00081455,0.00005905,-0.00091224,-0.00101625,-0.00010477,-0.00060145,-
 0.00001032,0.00072465,-0.00013325,0.00063212,0.00020981,0.00010660,-0.
 00075370,-0.00000357,0.00004963,0.00001585,-0.00003171,-0.00000828,-0.
 00001284,-0.00000602,0.00024747,-0.00187706,0.00280822,-0.00184396,-0.
 00092676,-0.00018501,0.00041009,-0.00014491,-0.00020755,0.00015340,0.0
 0003343,0.00004171,-0.00017201,0.00028768,0.00006235,-0.00018814,0.000
 11227,0.00003074,0.00038132,0.00018011,-0.00003804,-0.00004104,0.00000
 121,-0.00000156,0.00032961,-0.00046694,0.00001620,0.00059208,-0.000731
 18,0.00037495,-0.00063082,0.00010406,-0.00004438,0.00004559,-0.0000285
 0,-0.00000015,0.00005931,0.00002141,0.00000085,0.00072207,-0.00007945,
 0.00019693,-0.00000938,0.00005348,-0.00006334,-0.00003004,-0.00005041,
 -0.00006671,0.00020022,-0.00185294,-0.00000133,0.00009740,-0.00078037,
 -0.00000918,0.00023448,0.00030453,0.00001567,0.00126636,-0.00009472,-0
 .00001112,-0.00040939,-0.00006602,0.00027371,-0.00037963,0.00023104,-0
 .00002219,-0.00040350,-0.00012034,-0.00022658,-0.00316763,-0.07978989,
 0.00169824,0.00214359,0.01738402,0.00043530,0.02880864,0.00420813,-0.0
 2371420,-0.01193858,0.05847647,0.00169181,-0.00004368,0.00041302,-0.00
 008227,-0.00028139,0.00014767,-0.00008322,0.00031509,0.00008134,0.0003
 3011,-0.00100811,0.00056438,0.00221104,0.00575576,0.00024483,0.0056270
 5,-0.00716382,-0.00492671,0.00053175,-0.00052834,-0.00008945,0.0007199
 0,0.00092457,0.00004519,-0.00045312,0.00018217,-0.00054285,0.00016264,
 -0.00052640,-0.00002613,-0.00008091,0.00063579,-0.00000018,-0.00006804
 ,-0.00002381,0.00000109,0.00000592,0.00001178,0.00000114,0.00029458,-0
 .00061259,0.00132349,0.00008418,0.00143738,-0.00023359,-0.00018400,-0.
 00007232,-0.00011983,0.00005586,-0.00000739,0.00013117,0.00007213,-0.0
 0018910,0.00000419,0.00016475,0.00005849,-0.00001267,-0.00025082,-0.00
 015168,-0.00000214,0.00002832,-0.00000269,-0.00001184,-0.00027940,0.00
 028419,0.00002710,-0.00036707,0.00065194,-0.00040107,0.00045888,-0.000
 08022,0.00003934,-0.00003101,0.00001935,-0.00000080,-0.00004089,-0.000
 01358,-0.00000730,-0.00052502,0.00005153,-0.00013405,0.00000794,-0.000
 03860,0.00004391,0.00001685,0.00003800,0.00004102,-0.00010440,0.001470
 08,-0.00003642,-0.00009720,0.00062754,0.00002170,-0.00013476,-0.000209
 21,-0.00001712,-0.00102474,0.00006655,-0.00003591,0.00033329,0.0000605
 9,-0.00021087,0.00031396,-0.00017645,0.00003291,0.00033428,0.00011104,
 0.00021389,0.16820086,-0.00178466,-0.32909514,0.01679691,-0.00065796,-
 0.04558784,0.01317443,-0.00279256,-0.00273550,-0.20781058,0.00366269,0
 .38085002\\-0.00000700,0.00000229,-0.00000026,-0.00000497,0.00000166,0
 .00000227,0.00000621,-0.00000620,-0.00000098,0.00000321,-0.00000406,0.
 00000178,-0.00000419,0.00000513,-0.00000138,0.00000374,-0.00000090,0.0
 0000014,0.00000773,0.00000652,0.00000092,-0.00000262,0.00000727,0.0000
 0419,0.00000135,-0.00000167,0.00000117,0.00000035,-0.00000689,-0.00000
 018,-0.00000958,-0.00000524,-0.00000078,0.00000103,-0.00000066,0.00000
 003,0.00000306,0.00000459,-0.00000007,0.00000828,-0.00001154,-0.000004
 38,0.00000315,0.00001474,0.00000074,-0.00000546,-0.00000460,0.00000058
 ,0.00000933,-0.00000073,-0.00000167,-0.00000397,-0.00000591,-0.0000021
 6,-0.00001030,0.00000089,0.00000352,-0.00000508,0.00000521,0.00000087,
 0.00000159,0.00000327,-0.00000033,0.00000296,0.00000137,-0.00000334,-0
 .00000097,-0.00000037,-0.00000259,0.00001092,-0.00000309,-0.00000276,0
 .00000235,-0.00000342,-0.00000127,0.00000026,0.00000024,-0.00000082,-0
 .00000559,-0.00000717,-0.00000002,-0.00000340,0.00000416,0.00000019,-0
 .00000076,0.00000046,-0.00000320,-0.00000144,0.00000180,0.00000218,-0.
 00000563,0.00000095,0.00000021,0.00000234,0.00000134,0.00000162,0.0000
 0341,0.00000673,-0.00000445,-0.00000061,-0.00000103,0.00000686,-0.0000
 0043,-0.00000148,0.00000101,-0.00000238,-0.00000094,0.00000276,0.00000
 313,0.00000136,-0.00000205,0.00000317,-0.00000054,0.00000613,-0.000004
 77,-0.00000067,0.00000043,0.00000157,-0.00000285,-0.00000489\\\@
 The archive entry for this job was punched.


 GOORD'S AXIOM:  A MEETING IS AN EVENT AT WHICH
 THE MINUTES ARE KEPT AND THE HOURS ARE LOST.
 Job cpu time:       3 days 11 hours  0 minutes  6.6 seconds.
 Elapsed time:       0 days  2 hours 26 minutes 34.7 seconds.
 File lengths (MBytes):  RWF=   2340 Int=      0 D2E=      0 Chk=     60 Scr=      8
 Normal termination of Gaussian 16 at Wed Mar 19 19:18:14 2025.
