40

C         -0.72213        0.09817       -0.00848
C          0.18715        1.14945       -0.00940
C          1.59062        0.96367       -0.00839
C          2.06560       -0.36888       -0.00831
C          1.13409       -1.43884       -0.00840
C         -0.21525       -1.24178       -0.00777
C          2.53613        2.03504       -0.00789
C          3.45481       -0.62111       -0.00743
H          1.50918       -2.45239       -0.00870
C          4.32819        0.42966       -0.00608
C          3.87997        1.76028       -0.00675
H          3.82164       -1.63832       -0.00996
H          4.58173        2.58409       -0.01018
N         -2.03691        0.59060       -0.00985
N         -2.98470       -0.21550        0.00180
C         -4.27578        0.33532        0.00024
C         -5.32726       -0.58346        0.01892
C         -4.57752        1.70351       -0.01543
C         -6.64199       -0.16332        0.02250
H         -5.09293       -1.64079        0.03234
C         -5.88593        2.12961       -0.01283
H         -3.77911        2.43275       -0.02878
C         -6.94630        1.20450        0.00739
H         -7.44541       -0.89046        0.03718
H         -6.10997        3.19019       -0.02628
N         -8.24908        1.63882       -0.03411
H         -8.96987        0.99055        0.24245
H         -8.43292        2.59628        0.22232
O         -0.27999        2.42165       -0.01052
O          2.16267        3.33541       -0.00976
H          1.19333        3.39800       -0.01141
S          6.10166        0.12952        0.01264
O          6.58235        0.68562        1.29838
O          6.26685       -1.33598       -0.08453
O          6.63685        0.85735       -1.16012
S         -1.21418       -2.76640       -0.00647
O         -1.99992       -2.75678        1.24405
O         -0.20818       -3.85492       -0.01519
O         -2.01447       -2.75001       -1.24755
H         -1.25622        2.35305       -0.01196
