40

C          0.76046        0.22751        0.01354
C         -0.05230       -0.96945        0.01876
C         -1.49549       -0.83164        0.01069
C         -2.08148        0.45033       -0.00084
C         -1.23723        1.61769       -0.00107
C          0.10475        1.52036        0.00583
C         -2.32941       -1.97745        0.01088
C         -3.47406        0.57866       -0.01357
H         -1.70077        2.59435       -0.00731
C         -4.25933       -0.55598       -0.01552
C         -3.70616       -1.83153       -0.00292
H         -3.93440        1.55699       -0.02711
H         -4.32882       -2.71653       -0.00898
N          2.09178        0.20041        0.01173
N          2.73241       -0.90748        0.01665
H          2.18190       -1.77778        0.02309
C          4.13973       -0.95407        0.00897
C          4.74936       -2.20526        0.00017
C          4.92410        0.19588        0.00656
C          6.12756       -2.30954       -0.01001
H          4.14330       -3.10406       -0.00102
C          6.30106        0.08898       -0.00337
H          4.45352        1.16874        0.01124
C          6.93000       -1.16338       -0.01319
H          6.59152       -3.28884       -0.01623
H          6.90525        0.98887       -0.00345
N          8.31050       -1.26322        0.02841
H          8.70589       -2.13451       -0.29186
H          8.82839       -0.45863       -0.29168
O          0.48353       -2.11658        0.02814
O         -1.81598       -3.21794        0.02115
H         -0.83214       -3.11986        0.02676
S         -6.05557       -0.40205       -0.01276
O         -6.49192       -0.92612        1.30125
O         -6.33730        1.03781       -0.18743
O         -6.52276       -1.23164       -1.14528
S          1.05628        3.06188        0.00424
O          1.86163        3.05257        1.24417
O          0.03573        4.13337        0.00104
O          1.86492        3.04845       -1.23354
