40

C         -0.69902        0.20769       -0.09745
C          0.23018        1.29178       -0.15711
C          1.64882        0.98327       -0.08351
C          2.08875       -0.35016        0.00164
C          1.12552       -1.40125       -0.02773
C         -0.21024       -1.14569       -0.06923
C          2.60976        2.03358       -0.08738
C          3.46933       -0.62883        0.07840
H          1.47251       -2.42356       -0.07020
C          4.36781        0.40835        0.07582
C          3.95714        1.74343       -0.00629
H          3.81708       -1.65108        0.13909
H          4.67471        2.55368       -0.00625
N         -2.01505        0.62100       -0.09615
N         -2.87182       -0.14824        0.39684
C         -4.20034        0.31413        0.27131
C         -5.13160       -0.20977        1.16781
C         -4.61864        1.21186       -0.71256
C         -6.45963        0.17641        1.10910
H         -4.79843       -0.91556        1.91770
C         -5.94657        1.59622       -0.78397
H         -3.89870        1.59613       -1.42134
C         -6.84431        1.07519        0.13040
H         -7.17928       -0.22210        1.81388
H         -6.27389        2.28737       -1.55144
N         -8.26441        1.46080        0.03530
H         -8.68802        1.58189        0.95887
H         -8.38021        2.34503       -0.46582
O         -0.13301        2.51634       -0.22403
O          2.20597        3.31131       -0.16740
H          1.19045        3.24879       -0.20929
S          6.13128        0.06837        0.17055
O          6.61331        0.78303        1.37619
O          6.26522       -1.40106        0.27767
O          6.71068        0.61171       -1.08086
S         -1.24406       -2.63991       -0.26603
O         -1.83966       -2.96471        1.04936
O         -0.28952       -3.69396       -0.69455
O         -2.22998       -2.33584       -1.32672
H         -8.81881        0.75753       -0.46222
