 Entering Gaussian System, Link 0=g16
 Initial command:
 /share/Apps/gaussian/g16/l1.exe "/share/ceph/scratch/zjk220/12373144/Gau-2039169.inp" -scrdir="/share/ceph/scratch/zjk220/12373144/"
 Entering Link 1 = /share/Apps/gaussian/g16/l1.exe PID=   2039172.
  
 Copyright (c) 1988-2019, Gaussian, Inc.  All Rights Reserved.
  
 This is part of the Gaussian(R) 16 program.  It is based on
 the Gaussian(R) 09 system (copyright 2009, Gaussian, Inc.),
 the Gaussian(R) 03 system (copyright 2003, Gaussian, Inc.),
 the Gaussian(R) 98 system (copyright 1998, Gaussian, Inc.),
 the Gaussian(R) 94 system (copyright 1995, Gaussian, Inc.),
 the Gaussian 92(TM) system (copyright 1992, Gaussian, Inc.),
 the Gaussian 90(TM) system (copyright 1990, Gaussian, Inc.),
 the Gaussian 88(TM) system (copyright 1988, Gaussian, Inc.),
 the Gaussian 86(TM) system (copyright 1986, Carnegie Mellon
 University), and the Gaussian 82(TM) system (copyright 1983,
 Carnegie Mellon University). Gaussian is a federally registered
 trademark of Gaussian, Inc.
  
 This software contains proprietary and confidential information,
 including trade secrets, belonging to Gaussian, Inc.
  
 This software is provided under written license and may be
 used, copied, transmitted, or stored only in accord with that
 written license.
  
 The following legend is applicable only to US Government
 contracts under FAR:
  
                    RESTRICTED RIGHTS LEGEND
  
 Use, reproduction and disclosure by the US Government is
 subject to restrictions as set forth in subparagraphs (a)
 and (c) of the Commercial Computer Software - Restricted
 Rights clause in FAR 52.227-19.
  
 Gaussian, Inc.
 340 Quinnipiac St., Bldg. 40, Wallingford CT 06492
  
  
 ---------------------------------------------------------------
 Warning -- This program may not be used in any manner that
 competes with the business of Gaussian, Inc. or will provide
 assistance to any competitor of Gaussian, Inc.  The licensee
 of this program is prohibited from giving any competitor of
 Gaussian, Inc. access to this program.  By using this program,
 the user acknowledges that Gaussian, Inc. is engaged in the
 business of creating and licensing software in the field of
 computational chemistry and represents and warrants to the
 licensee that it is not a competitor of Gaussian, Inc. and that
 it will not use this program in any manner prohibited above.
 ---------------------------------------------------------------
  

 Cite this work as:
 Gaussian 16, Revision C.01,
 M. J. Frisch, G. W. Trucks, H. B. Schlegel, G. E. Scuseria, 
 M. A. Robb, J. R. Cheeseman, G. Scalmani, V. Barone, 
 G. A. Petersson, H. Nakatsuji, X. Li, M. Caricato, A. V. Marenich, 
 J. Bloino, B. G. Janesko, R. Gomperts, B. Mennucci, H. P. Hratchian, 
 J. V. Ortiz, A. F. Izmaylov, J. L. Sonnenberg, D. Williams-Young, 
 F. Ding, F. Lipparini, F. Egidi, J. Goings, B. Peng, A. Petrone, 
 T. Henderson, D. Ranasinghe, V. G. Zakrzewski, J. Gao, N. Rega, 
 G. Zheng, W. Liang, M. Hada, M. Ehara, K. Toyota, R. Fukuda, 
 J. Hasegawa, M. Ishida, T. Nakajima, Y. Honda, O. Kitao, H. Nakai, 
 T. Vreven, K. Throssell, J. A. Montgomery, Jr., J. E. Peralta, 
 F. Ogliaro, M. J. Bearpark, J. J. Heyd, E. N. Brothers, K. N. Kudin, 
 V. N. Staroverov, T. A. Keith, R. Kobayashi, J. Normand, 
 K. Raghavachari, A. P. Rendell, J. C. Burant, S. S. Iyengar, 
 J. Tomasi, M. Cossi, J. M. Millam, M. Klene, C. Adamo, R. Cammi, 
 J. W. Ochterski, R. L. Martin, K. Morokuma, O. Farkas, 
 J. B. Foresman, and D. J. Fox, Gaussian, Inc., Wallingford CT, 2019.
 
 ******************************************
 Gaussian 16:  ES64L-G16RevC.01  3-Jul-2019
                19-Mar-2025 
 ******************************************
 %chk=AV3_OH.chk
 %nprocshared=36
 Will use up to   36 processors via shared memory.
 -------------------------------------------------------
 # opt freq cam-b3lyp/6-311++g(d,p) scrf=(solvent=water)
 -------------------------------------------------------
 1/18=20,19=15,26=3,38=1/1,3;
 2/9=110,12=2,17=6,18=5,40=1/2;
 3/5=4,6=6,7=1111,11=2,25=1,30=1,70=2201,71=1,72=1,74=-40/1,2,3;
 4//1;
 5/5=2,38=5,53=1/2;
 6/7=2,8=2,9=2,10=2,28=1/1;
 7//1,2,3,16;
 1/18=20,19=15,26=3/3(2);
 2/9=110/2;
 99//99;
 2/9=110/2;
 3/5=4,6=6,7=1111,11=2,25=1,30=1,70=2205,71=1,72=1,74=-40/1,2,3;
 4/5=5,16=3,69=1/1;
 5/5=2,38=5,53=1/2;
 7//1,2,3,16;
 1/18=20,19=15,26=3/3(-5);
 2/9=110/2;
 6/7=2,8=2,9=2,10=2,19=2,28=1/1;
 99/9=1/99;
 --------
 opt freq
 --------
 Symbolic Z-matrix:
 Charge = -2 Multiplicity = 1
 C                     0.75862   0.26838   0.00281 
 C                    -0.03072  -0.88191   0.00353 
 C                    -1.45347  -0.81256   0.00112 
 C                    -2.0625    0.46594  -0.00424 
 C                    -1.24529   1.62941  -0.00438 
 C                     0.10911   1.54166  -0.00033 
 C                    -2.28967  -1.97151   0.0033 
 C                    -3.46846   0.57707  -0.00909 
 H                    -1.71456   2.6031   -0.00733 
 C                    -4.23396  -0.55619  -0.00769 
 C                    -3.65586  -1.83313  -0.00071 
 H                    -3.9348    1.5527   -0.01522 
 H                    -4.27012  -2.72406  -0.00104 
 N                     2.15348   0.24528   0.00409 
 N                     2.69912  -0.88556   0.00483 
 C                     4.10201  -0.93262   0.00485 
 C                     4.68597  -2.19944  -0.00017 
 C                     4.92556   0.19853   0.00667 
 C                     6.0584   -2.3451   -0.00278 
 H                     4.04729  -3.07485  -0.0038 
 C                     6.29492   0.05772   0.00474 
 H                     4.4798    1.18371   0.00844 
 C                     6.89009  -1.21698  -0.00101 
 H                     6.49953  -3.33482  -0.00647 
 H                     6.92739   0.9381    0.00758 
 N                     8.25732  -1.3495    0.04184 
 H                     8.65081  -2.23802  -0.22646 
 H                     8.81493  -0.55335  -0.22537 
 O                     0.53729  -2.09692   0.00614 
 O                    -1.79035  -3.22733   0.00851 
 H                    -0.81784  -3.18581   0.00963 
 S                    -6.02927  -0.43466  -0.00285 
 O                    -6.46151  -1.05737   1.26915 
 O                    -6.3393    1.00821  -0.07974 
 O                    -6.47871  -1.19313  -1.19217 
 S                     1.04537   3.09481   0.00144 
 O                     1.84778   3.09559   1.24297 
 O                     0.00991   4.15222  -0.00157 
 O                     1.85463   3.09519  -1.23564 
 H                     1.54404  -1.94802   0.00617 
 

 GradGradGradGradGradGradGradGradGradGradGradGradGradGradGradGradGradGrad
 Berny optimization.
 Initialization pass.
                           ----------------------------
                           !    Initial Parameters    !
                           ! (Angstroms and Degrees)  !
 --------------------------                            --------------------------
 ! Name  Definition              Value          Derivative Info.                !
 --------------------------------------------------------------------------------
 ! R1    R(1,2)                  1.3951         estimate D2E/DX2                !
 ! R2    R(1,6)                  1.4294         estimate D2E/DX2                !
 ! R3    R(1,14)                 1.3951         estimate D2E/DX2                !
 ! R4    R(2,3)                  1.4244         estimate D2E/DX2                !
 ! R5    R(2,29)                 1.3412         estimate D2E/DX2                !
 ! R6    R(3,4)                  1.4162         estimate D2E/DX2                !
 ! R7    R(3,7)                  1.4291         estimate D2E/DX2                !
 ! R8    R(4,5)                  1.4218         estimate D2E/DX2                !
 ! R9    R(4,8)                  1.4104         estimate D2E/DX2                !
 ! R10   R(5,6)                  1.3572         estimate D2E/DX2                !
 ! R11   R(5,9)                  1.0809         estimate D2E/DX2                !
 ! R12   R(6,36)                 1.8135         estimate D2E/DX2                !
 ! R13   R(7,11)                 1.3732         estimate D2E/DX2                !
 ! R14   R(7,30)                 1.3515         estimate D2E/DX2                !
 ! R15   R(8,10)                 1.3676         estimate D2E/DX2                !
 ! R16   R(8,12)                 1.0814         estimate D2E/DX2                !
 ! R17   R(10,11)                1.4017         estimate D2E/DX2                !
 ! R18   R(10,32)                1.7994         estimate D2E/DX2                !
 ! R19   R(11,13)                1.0822         estimate D2E/DX2                !
 ! R20   R(14,15)                1.2556         estimate D2E/DX2                !
 ! R21   R(15,16)                1.4037         estimate D2E/DX2                !
 ! R22   R(16,17)                1.3949         estimate D2E/DX2                !
 ! R23   R(16,18)                1.3992         estimate D2E/DX2                !
 ! R24   R(17,19)                1.3801         estimate D2E/DX2                !
 ! R25   R(17,20)                1.0836         estimate D2E/DX2                !
 ! R26   R(18,21)                1.3766         estimate D2E/DX2                !
 ! R27   R(18,22)                1.0813         estimate D2E/DX2                !
 ! R28   R(19,23)                1.4016         estimate D2E/DX2                !
 ! R29   R(19,24)                1.0836         estimate D2E/DX2                !
 ! R30   R(21,23)                1.4068         estimate D2E/DX2                !
 ! R31   R(21,25)                1.084          estimate D2E/DX2                !
 ! R32   R(23,26)                1.3743         estimate D2E/DX2                !
 ! R33   R(26,27)                1.0081         estimate D2E/DX2                !
 ! R34   R(26,28)                1.0081         estimate D2E/DX2                !
 ! R35   R(29,40)                1.0177         estimate D2E/DX2                !
 ! R36   R(30,31)                0.9734         estimate D2E/DX2                !
 ! R37   R(32,33)                1.4807         estimate D2E/DX2                !
 ! R38   R(32,34)                1.4778         estimate D2E/DX2                !
 ! R39   R(32,35)                1.4805         estimate D2E/DX2                !
 ! R40   R(36,37)                1.4783         estimate D2E/DX2                !
 ! R41   R(36,38)                1.48           estimate D2E/DX2                !
 ! R42   R(36,39)                1.4783         estimate D2E/DX2                !
 ! A1    A(2,1,6)              118.5152         estimate D2E/DX2                !
 ! A2    A(2,1,14)             123.5095         estimate D2E/DX2                !
 ! A3    A(6,1,14)             117.9753         estimate D2E/DX2                !
 ! A4    A(1,2,3)              121.6676         estimate D2E/DX2                !
 ! A5    A(1,2,29)             120.4859         estimate D2E/DX2                !
 ! A6    A(3,2,29)             117.8465         estimate D2E/DX2                !
 ! A7    A(2,3,4)              118.2621         estimate D2E/DX2                !
 ! A8    A(2,3,7)              123.0202         estimate D2E/DX2                !
 ! A9    A(4,3,7)              118.7177         estimate D2E/DX2                !
 ! A10   A(3,4,5)              119.4446         estimate D2E/DX2                !
 ! A11   A(3,4,8)              119.9912         estimate D2E/DX2                !
 ! A12   A(5,4,8)              120.5642         estimate D2E/DX2                !
 ! A13   A(4,5,6)              121.3767         estimate D2E/DX2                !
 ! A14   A(4,5,9)              119.1843         estimate D2E/DX2                !
 ! A15   A(6,5,9)              119.439          estimate D2E/DX2                !
 ! A16   A(1,6,5)              120.7336         estimate D2E/DX2                !
 ! A17   A(1,6,36)             121.8911         estimate D2E/DX2                !
 ! A18   A(5,6,36)             117.3752         estimate D2E/DX2                !
 ! A19   A(3,7,11)             120.0268         estimate D2E/DX2                !
 ! A20   A(3,7,30)             122.5061         estimate D2E/DX2                !
 ! A21   A(11,7,30)            117.4671         estimate D2E/DX2                !
 ! A22   A(4,8,10)             119.5186         estimate D2E/DX2                !
 ! A23   A(4,8,12)             120.0672         estimate D2E/DX2                !
 ! A24   A(10,8,12)            120.4141         estimate D2E/DX2                !
 ! A25   A(8,10,11)            121.6041         estimate D2E/DX2                !
 ! A26   A(8,10,32)            120.1659         estimate D2E/DX2                !
 ! A27   A(11,10,32)           118.2286         estimate D2E/DX2                !
 ! A28   A(7,11,10)            120.1415         estimate D2E/DX2                !
 ! A29   A(7,11,13)            118.8009         estimate D2E/DX2                !
 ! A30   A(10,11,13)           121.0574         estimate D2E/DX2                !
 ! A31   A(1,14,15)            116.7065         estimate D2E/DX2                !
 ! A32   A(14,15,16)           117.679          estimate D2E/DX2                !
 ! A33   A(15,16,17)           116.6691         estimate D2E/DX2                !
 ! A34   A(15,16,18)           124.1357         estimate D2E/DX2                !
 ! A35   A(17,16,18)           119.195          estimate D2E/DX2                !
 ! A36   A(16,17,19)           120.8065         estimate D2E/DX2                !
 ! A37   A(16,17,20)           119.1387         estimate D2E/DX2                !
 ! A38   A(19,17,20)           120.0547         estimate D2E/DX2                !
 ! A39   A(16,18,21)           120.1858         estimate D2E/DX2                !
 ! A40   A(16,18,22)           119.5979         estimate D2E/DX2                !
 ! A41   A(21,18,22)           120.2162         estimate D2E/DX2                !
 ! A42   A(17,19,23)           120.3404         estimate D2E/DX2                !
 ! A43   A(17,19,24)           120.0816         estimate D2E/DX2                !
 ! A44   A(23,19,24)           119.578          estimate D2E/DX2                !
 ! A45   A(18,21,23)           120.8994         estimate D2E/DX2                !
 ! A46   A(18,21,25)           119.8223         estimate D2E/DX2                !
 ! A47   A(23,21,25)           119.2783         estimate D2E/DX2                !
 ! A48   A(19,23,21)           118.5728         estimate D2E/DX2                !
 ! A49   A(19,23,26)           120.8488         estimate D2E/DX2                !
 ! A50   A(21,23,26)           120.5393         estimate D2E/DX2                !
 ! A51   A(23,26,27)           117.7105         estimate D2E/DX2                !
 ! A52   A(23,26,28)           117.7674         estimate D2E/DX2                !
 ! A53   A(27,26,28)           114.1821         estimate D2E/DX2                !
 ! A54   A(2,29,40)            106.6426         estimate D2E/DX2                !
 ! A55   A(7,30,31)            109.2384         estimate D2E/DX2                !
 ! A56   A(10,32,33)           105.3758         estimate D2E/DX2                !
 ! A57   A(10,32,34)           105.9687         estimate D2E/DX2                !
 ! A58   A(10,32,35)           105.4338         estimate D2E/DX2                !
 ! A59   A(33,32,34)           113.207          estimate D2E/DX2                !
 ! A60   A(33,32,35)           112.7077         estimate D2E/DX2                !
 ! A61   A(34,32,35)           113.2487         estimate D2E/DX2                !
 ! A62   A(6,36,37)            106.35           estimate D2E/DX2                !
 ! A63   A(6,36,38)            104.5186         estimate D2E/DX2                !
 ! A64   A(6,36,39)            106.3813         estimate D2E/DX2                !
 ! A65   A(37,36,38)           112.4022         estimate D2E/DX2                !
 ! A66   A(37,36,39)           113.9336         estimate D2E/DX2                !
 ! A67   A(38,36,39)           112.4037         estimate D2E/DX2                !
 ! D1    D(6,1,2,3)              0.005          estimate D2E/DX2                !
 ! D2    D(6,1,2,29)           179.9848         estimate D2E/DX2                !
 ! D3    D(14,1,2,3)          -179.9505         estimate D2E/DX2                !
 ! D4    D(14,1,2,29)            0.0293         estimate D2E/DX2                !
 ! D5    D(2,1,6,5)             -0.0893         estimate D2E/DX2                !
 ! D6    D(2,1,6,36)           179.8905         estimate D2E/DX2                !
 ! D7    D(14,1,6,5)           179.8686         estimate D2E/DX2                !
 ! D8    D(14,1,6,36)           -0.1515         estimate D2E/DX2                !
 ! D9    D(2,1,14,15)            0.0589         estimate D2E/DX2                !
 ! D10   D(6,1,14,15)         -179.8968         estimate D2E/DX2                !
 ! D11   D(1,2,3,4)              0.0996         estimate D2E/DX2                !
 ! D12   D(1,2,3,7)           -179.9273         estimate D2E/DX2                !
 ! D13   D(29,2,3,4)          -179.8808         estimate D2E/DX2                !
 ! D14   D(29,2,3,7)             0.0923         estimate D2E/DX2                !
 ! D15   D(1,2,29,40)           -0.0629         estimate D2E/DX2                !
 ! D16   D(3,2,29,40)          179.9177         estimate D2E/DX2                !
 ! D17   D(2,3,4,5)             -0.1225         estimate D2E/DX2                !
 ! D18   D(2,3,4,8)            179.8911         estimate D2E/DX2                !
 ! D19   D(7,3,4,5)            179.9032         estimate D2E/DX2                !
 ! D20   D(7,3,4,8)             -0.0832         estimate D2E/DX2                !
 ! D21   D(2,3,7,11)          -179.9286         estimate D2E/DX2                !
 ! D22   D(2,3,7,30)             0.0338         estimate D2E/DX2                !
 ! D23   D(4,3,7,11)             0.0444         estimate D2E/DX2                !
 ! D24   D(4,3,7,30)          -179.9932         estimate D2E/DX2                !
 ! D25   D(3,4,5,6)              0.0421         estimate D2E/DX2                !
 ! D26   D(3,4,5,9)           -179.9301         estimate D2E/DX2                !
 ! D27   D(8,4,5,6)           -179.9715         estimate D2E/DX2                !
 ! D28   D(8,4,5,9)              0.0562         estimate D2E/DX2                !
 ! D29   D(3,4,8,10)             0.0423         estimate D2E/DX2                !
 ! D30   D(3,4,8,12)          -179.8754         estimate D2E/DX2                !
 ! D31   D(5,4,8,10)          -179.9439         estimate D2E/DX2                !
 ! D32   D(5,4,8,12)             0.1383         estimate D2E/DX2                !
 ! D33   D(4,5,6,1)              0.0661         estimate D2E/DX2                !
 ! D34   D(4,5,6,36)          -179.9147         estimate D2E/DX2                !
 ! D35   D(9,5,6,1)           -179.9617         estimate D2E/DX2                !
 ! D36   D(9,5,6,36)             0.0575         estimate D2E/DX2                !
 ! D37   D(1,6,36,37)          -60.858          estimate D2E/DX2                !
 ! D38   D(1,6,36,38)         -179.9518         estimate D2E/DX2                !
 ! D39   D(1,6,36,39)           60.9383         estimate D2E/DX2                !
 ! D40   D(5,6,36,37)          119.1225         estimate D2E/DX2                !
 ! D41   D(5,6,36,38)            0.0287         estimate D2E/DX2                !
 ! D42   D(5,6,36,39)         -119.0812         estimate D2E/DX2                !
 ! D43   D(3,7,11,10)            0.0351         estimate D2E/DX2                !
 ! D44   D(3,7,11,13)          179.8744         estimate D2E/DX2                !
 ! D45   D(30,7,11,10)        -179.9292         estimate D2E/DX2                !
 ! D46   D(30,7,11,13)          -0.0899         estimate D2E/DX2                !
 ! D47   D(3,7,30,31)           -0.0444         estimate D2E/DX2                !
 ! D48   D(11,7,30,31)         179.919          estimate D2E/DX2                !
 ! D49   D(4,8,10,11)            0.0393         estimate D2E/DX2                !
 ! D50   D(4,8,10,32)          179.5962         estimate D2E/DX2                !
 ! D51   D(12,8,10,11)         179.9567         estimate D2E/DX2                !
 ! D52   D(12,8,10,32)          -0.4864         estimate D2E/DX2                !
 ! D53   D(8,10,11,7)           -0.0789         estimate D2E/DX2                !
 ! D54   D(8,10,11,13)        -179.9145         estimate D2E/DX2                !
 ! D55   D(32,10,11,7)        -179.6441         estimate D2E/DX2                !
 ! D56   D(32,10,11,13)          0.5203         estimate D2E/DX2                !
 ! D57   D(8,10,32,33)        -117.082          estimate D2E/DX2                !
 ! D58   D(8,10,32,34)           3.1682         estimate D2E/DX2                !
 ! D59   D(8,10,32,35)         123.4948         estimate D2E/DX2                !
 ! D60   D(11,10,32,33)         62.4897         estimate D2E/DX2                !
 ! D61   D(11,10,32,34)       -177.2601         estimate D2E/DX2                !
 ! D62   D(11,10,32,35)        -56.9335         estimate D2E/DX2                !
 ! D63   D(1,14,15,16)         179.9413         estimate D2E/DX2                !
 ! D64   D(14,15,16,17)       -179.7311         estimate D2E/DX2                !
 ! D65   D(14,15,16,18)          0.1272         estimate D2E/DX2                !
 ! D66   D(15,16,17,19)        179.8923         estimate D2E/DX2                !
 ! D67   D(15,16,17,20)          0.0003         estimate D2E/DX2                !
 ! D68   D(18,16,17,19)          0.0266         estimate D2E/DX2                !
 ! D69   D(18,16,17,20)       -179.8654         estimate D2E/DX2                !
 ! D70   D(15,16,18,21)       -179.9133         estimate D2E/DX2                !
 ! D71   D(15,16,18,22)          0.016          estimate D2E/DX2                !
 ! D72   D(17,16,18,21)         -0.0583         estimate D2E/DX2                !
 ! D73   D(17,16,18,22)        179.871          estimate D2E/DX2                !
 ! D74   D(16,17,19,23)         -0.0282         estimate D2E/DX2                !
 ! D75   D(16,17,19,24)        179.9873         estimate D2E/DX2                !
 ! D76   D(20,17,19,23)        179.8628         estimate D2E/DX2                !
 ! D77   D(20,17,19,24)         -0.1217         estimate D2E/DX2                !
 ! D78   D(16,18,21,23)          0.0919         estimate D2E/DX2                !
 ! D79   D(16,18,21,25)       -179.9139         estimate D2E/DX2                !
 ! D80   D(22,18,21,23)       -179.8369         estimate D2E/DX2                !
 ! D81   D(22,18,21,25)          0.1573         estimate D2E/DX2                !
 ! D82   D(17,19,23,21)          0.0594         estimate D2E/DX2                !
 ! D83   D(17,19,23,26)        177.7941         estimate D2E/DX2                !
 ! D84   D(24,19,23,21)       -179.956          estimate D2E/DX2                !
 ! D85   D(24,19,23,26)         -2.2213         estimate D2E/DX2                !
 ! D86   D(18,21,23,19)         -0.0917         estimate D2E/DX2                !
 ! D87   D(18,21,23,26)       -177.8336         estimate D2E/DX2                !
 ! D88   D(25,21,23,19)        179.9141         estimate D2E/DX2                !
 ! D89   D(25,21,23,26)          2.1721         estimate D2E/DX2                !
 ! D90   D(19,23,26,27)         19.474          estimate D2E/DX2                !
 ! D91   D(19,23,26,28)        162.5536         estimate D2E/DX2                !
 ! D92   D(21,23,26,27)       -162.8359         estimate D2E/DX2                !
 ! D93   D(21,23,26,28)        -19.7563         estimate D2E/DX2                !
 --------------------------------------------------------------------------------
 Trust Radius=3.00D-01 FncErr=1.00D-07 GrdErr=1.00D-06 EigMax=2.50D+02 EigMin=1.00D-04
 Number of steps in this run=    212 maximum allowed number of steps=    240.
 GradGradGradGradGradGradGradGradGradGradGradGradGradGradGradGradGradGrad

                          Input orientation:                          
 ---------------------------------------------------------------------
 Center     Atomic      Atomic             Coordinates (Angstroms)
 Number     Number       Type             X           Y           Z
 ---------------------------------------------------------------------
      1          6           0        0.758620    0.268380    0.002810
      2          6           0       -0.030720   -0.881910    0.003530
      3          6           0       -1.453470   -0.812560    0.001120
      4          6           0       -2.062500    0.465940   -0.004240
      5          6           0       -1.245290    1.629410   -0.004380
      6          6           0        0.109110    1.541660   -0.000330
      7          6           0       -2.289670   -1.971510    0.003300
      8          6           0       -3.468460    0.577070   -0.009090
      9          1           0       -1.714560    2.603100   -0.007330
     10          6           0       -4.233960   -0.556190   -0.007690
     11          6           0       -3.655860   -1.833130   -0.000710
     12          1           0       -3.934800    1.552700   -0.015220
     13          1           0       -4.270120   -2.724060   -0.001040
     14          7           0        2.153480    0.245280    0.004090
     15          7           0        2.699120   -0.885560    0.004830
     16          6           0        4.102010   -0.932620    0.004850
     17          6           0        4.685970   -2.199440   -0.000170
     18          6           0        4.925560    0.198530    0.006670
     19          6           0        6.058400   -2.345100   -0.002780
     20          1           0        4.047290   -3.074850   -0.003800
     21          6           0        6.294920    0.057720    0.004740
     22          1           0        4.479800    1.183710    0.008440
     23          6           0        6.890090   -1.216980   -0.001010
     24          1           0        6.499530   -3.334820   -0.006470
     25          1           0        6.927390    0.938100    0.007580
     26          7           0        8.257320   -1.349500    0.041840
     27          1           0        8.650810   -2.238020   -0.226460
     28          1           0        8.814930   -0.553350   -0.225370
     29          8           0        0.537290   -2.096920    0.006140
     30          8           0       -1.790350   -3.227330    0.008510
     31          1           0       -0.817840   -3.185810    0.009630
     32         16           0       -6.029270   -0.434660   -0.002850
     33          8           0       -6.461510   -1.057370    1.269150
     34          8           0       -6.339300    1.008210   -0.079740
     35          8           0       -6.478710   -1.193130   -1.192170
     36         16           0        1.045370    3.094810    0.001440
     37          8           0        1.847780    3.095590    1.242970
     38          8           0        0.009910    4.152220   -0.001570
     39          8           0        1.854630    3.095190   -1.235640
     40          1           0        1.544040   -1.948020    0.006170
 ---------------------------------------------------------------------
                    Distance matrix (angstroms):
                    1          2          3          4          5
     1  C    0.000000
     2  C    1.395072   0.000000
     3  C    2.462067   1.424441   0.000000
     4  C    2.828038   2.438215   1.416160   0.000000
     5  C    2.422418   2.789618   2.450834   1.421793   0.000000
     6  C    1.429376   2.427604   2.825599   2.423444   1.357246
     7  C    3.782748   2.508004   1.429126   2.448025   3.749322
     8  C    4.238353   3.734547   2.447726   1.410353   2.459660
     9  H    3.401123   3.870495   3.425635   2.165300   1.080877
    10  C    5.060225   4.215856   2.792298   2.400000   3.702568
    11  C    4.889171   3.747863   2.427362   2.797236   4.219010
    12  H    4.866004   4.601034   3.428078   2.164873   2.690626
    13  H    5.851747   4.622342   3.404020   3.879394   5.301161
    14  N    1.395052   2.457903   3.758873   4.221759   3.669813
    15  N    2.257681   2.729843   4.153233   4.949713   4.677983
    16  C    3.552557   4.133041   5.556778   6.321174   5.929393
    17  C    4.638343   4.897251   6.294137   7.255764   7.059742
    18  C    4.167527   5.072679   6.458665   6.993183   6.334582
    19  C    5.909144   6.262455   7.666608   8.593658   8.315084
    20  H    4.689625   4.630249   5.947801   7.061638   7.081064
    21  C    5.540307   6.395047   7.797112   8.367389   7.702276
    22  H    3.832107   4.961008   6.260099   6.581568   5.742427
    23  C    6.308822   6.928918   8.353356   9.109396   8.618953
    24  H    6.777993   6.975746   8.343384   9.367718   9.199229
    25  H    6.205020   7.192200   8.561756   9.002288   8.201875
    26  N    7.671347   8.301308   9.725708  10.478389   9.958697
    27  H    8.283796   8.789818  10.206870  11.051506  10.627282
    28  H    8.101323   8.854709  10.274168  10.927321  10.296665
    29  O    2.375635   1.341228   2.369120   3.650653   4.130767
    30  O    4.326346   2.932118   2.438167   3.703305   4.887247
    31  H    3.796933   2.434656   2.456911   3.858063   4.834176
    32  S    6.824203   6.015204   4.591380   4.067720   5.210264
    33  O    7.449262   6.556496   5.171876   4.826312   6.004133
    34  O    7.136850   6.586173   5.214698   4.311702   5.132300
    35  O    7.479501   6.565298   5.178978   4.864833   6.063519
    36  S    2.840939   4.119742   4.638075   4.070608   2.719293
    37  O    3.273741   4.570063   5.264416   4.874513   3.643165
    38  O    3.955351   5.034297   5.175957   4.228895   2.817819
    39  O    3.275035   4.572462   5.267220   4.875778   3.643352
    40  H    2.351452   1.901701   3.205364   4.339867   4.536351
                    6          7          8          9         10
     6  C    0.000000
     7  C    4.254001   0.000000
     8  C    3.705336   2.808017   0.000000
     9  H    2.110089   4.610631   2.679732   0.000000
    10  C    4.823203   2.404894   1.367578   4.040853   0.000000
    11  C    5.056106   1.373186   2.417489   4.842399   1.401722
    12  H    4.043952   3.889325   1.081372   2.456190   2.130017
    13  H    6.113430   2.118616   3.397084   5.908431   2.168182
    14  N    2.420758   4.965455   5.631738   4.530031   6.437537
    15  N    3.549588   5.105616   6.338653   5.625964   6.940911
    16  C    4.697376   6.475559   7.719545   6.806905   8.344474
    17  C    5.911301   6.979364   8.614164   8.001951   9.070032
    18  C    5.000224   7.534496   8.402566   7.062106   9.190572
    19  C    7.106403   8.356427   9.964948   9.214316  10.446669
    20  H    6.068067   6.432299   8.356019   8.089378   8.655794
    21  C    6.361317   8.821166   9.777193   8.404218  10.546770
    22  H    4.385332   7.468679   7.971396   6.354920   8.885782
    23  C    7.320641   9.210718  10.512766   9.414513  11.143661
    24  H    8.038505   8.894310  10.708114  10.135589  11.087317
    25  H    6.844946   9.665404  10.402130   8.800895  11.260944
    26  N    8.646034  10.565386  11.883105  10.726782  12.516544
    27  H    9.343327  10.946137  12.443821  11.442262  12.995911
    28  H    8.957177  11.197125  12.337192  10.994584  13.050706
    29  O    3.663693   2.829742   4.816273   5.211641   5.013867
    30  O    5.133351   1.351455   4.158103   5.830944   3.620287
    31  H    4.817500   1.908101   4.602760   5.857975   4.311041
    32  S    6.448686   4.043087   2.753431   5.276810   1.799425
    33  O    7.179107   4.454467   3.641928   6.128783   2.616005
    34  O    6.470925   5.028432   2.903893   4.892559   2.623927
    35  O    7.231800   4.425277   3.687125   6.205831   2.616790
    36  S    1.813522   6.065484   5.168538   2.803403   6.418817
    37  O    2.642625   6.658136   6.014400   3.807370   7.203278
    38  O    2.612444   6.541266   4.988067   2.318103   6.338738
    39  O    2.643158   6.661955   6.015035   3.806575   7.204954
    40  H    3.773186   3.833783   5.612617   5.597441   5.943288
                   11         12         13         14         15
    11  C    0.000000
    12  H    3.397332   0.000000
    13  H    1.082161   4.289909   0.000000
    14  N    6.169947   6.227108   7.076697   0.000000
    15  N    6.425239   7.067843   7.207664   1.255597   0.000000
    16  C    7.809961   8.412344   8.561650   2.276888   1.403679
    17  C    8.349869   9.401939   8.971442   3.519969   2.381990
    18  C    8.818643   8.963271   9.648944   2.772475   2.476346
    19  C    9.727742  10.726465  10.335470   4.685991   3.662660
    20  H    7.802589   9.226490   8.324805   3.822282   2.571114
    21  C   10.128838  10.338401  10.925127   4.145685   3.717466
    22  H    8.677002   8.422720   9.582894   2.508473   2.729966
    23  C   10.563934  11.173611  11.261509   4.957187   4.204058
    24  H   10.265820  11.522290  10.786956   5.630753   4.521296
    25  H   10.940062  10.879588  11.781160   4.823923   4.604781
    26  N   11.923069  12.532909  12.602698   6.308852   5.577652
    27  H   12.315398  13.145789  12.932033   6.959542   6.107803
    28  H   12.538298  12.924211  13.265777   6.713075   6.129151
    29  O    4.201445   5.772328   4.848149   2.845694   2.478085
    30  O    2.328950   5.239076   2.530342   5.254792   5.063521
    31  H    3.143916   5.671819   3.483039   4.538849   4.202402
    32  S    2.754777   2.887310   2.887207   8.210954   8.740032
    33  O    3.175849   3.853094   3.032067   8.804279   9.249063
    34  O    3.909004   2.466222   4.268201   8.527391   9.235072
    35  O    3.130121   3.923808   2.939457   8.832597   9.260668
    36  S    6.810739   5.213490   7.881224   3.057407   4.310249
    37  O    7.491934   6.115700   8.534904   3.122906   4.255270
    38  O    7.018710   4.724238   8.099499   4.456356   5.710615
    39  O    7.495258   6.114426   8.538177   3.122215   4.254210
    40  H    5.201174   6.501783   5.865726   2.276398   1.569405
                   16         17         18         19         20
    16  C    0.000000
    17  C    1.394944   0.000000
    18  C    1.399192   2.409919   0.000000
    19  C    2.413011   1.380140   2.784505   0.000000
    20  H    2.142946   1.083636   3.389172   2.139416   0.000000
    21  C    2.406164   2.771915   1.376582   2.414444   3.855504
    22  H    2.149789   3.389437   1.081335   3.865825   4.280485
    23  C    2.802550   2.413167   2.421385   1.401558   3.396057
    24  H    3.393935   2.139656   3.868090   1.083584   2.465983
    25  H    3.388565   3.855928   2.134078   3.396270   4.939522
    26  N    4.176333   3.671335   3.673998   2.414220   4.550084
    27  H    4.738054   3.971480   4.457422   2.604244   4.684256
    28  H    4.733758   4.450690   3.968169   3.295204   5.397911
    29  O    3.750043   4.149951   4.952374   5.526692   3.643699
    30  O    6.323418   6.557389   7.539229   7.898185   5.839644
    31  H    5.411267   5.591507   6.666364   6.927454   4.866414
    32  S   10.143513  10.859596  10.973118  12.237710  10.416701
    33  O   10.639642  11.277491  11.525472  12.650067  10.776154
    34  O   10.620496  11.482679  11.294252  12.843425  11.160573
    35  O   10.651402  11.273136  11.551247  12.645980  10.758707
    36  S    5.056011   6.425189   4.841936   7.397507   6.861214
    37  O    4.779223   6.134987   4.403876   6.991589   6.668329
    38  O    6.526938   7.887276   6.308355   8.876903   8.278344
    39  O    4.776273   6.129925   4.400521   6.984868   6.662926
    40  H    2.752135   3.151980   4.005291   4.531799   2.745197
                   21         22         23         24         25
    21  C    0.000000
    22  H    2.136007   0.000000
    23  C    1.406812   3.401896   0.000000
    24  H    3.398723   4.949409   2.153558   0.000000
    25  H    1.084018   2.459882   2.155420   4.294311   0.000000
    26  N    2.415090   4.548398   1.374305   2.652104   2.646318
    27  H    3.297589   5.400068   2.047800   2.424742   3.621145
    28  H    2.603230   4.676045   2.048353   3.625682   2.416919
    29  O    6.147583   5.128930   6.413456   6.089406   7.074230
    30  O    8.727151   7.666293   8.910198   8.290590   9.661770
    31  H    7.817408   6.867146   7.955413   7.318905   8.774692
    32  S   12.334024  10.632958  12.943025  12.860084  13.029183
    33  O   12.867349  11.239399  13.412830  13.221291  13.595444
    34  O   12.670205  10.820883  13.415455  13.553702  13.267163
    35  O   12.890417  11.277401  13.421782  13.207098  13.627364
    36  S    6.064792   3.930351   7.263077   8.431374   6.264950
    37  O    5.526203   3.479494   6.750603   8.034305   5.655386
    38  O    7.501088   5.365824   8.727267   9.908126   7.627724
    39  O    5.520955   3.477500   6.743514   8.026891   5.650799
    40  H    5.156923   4.292601   5.395806   5.145897   6.108203
                   26         27         28         29         30
    26  N    0.000000
    27  H    1.008111   0.000000
    28  H    1.008060   1.692646   0.000000
    29  O    7.756209   8.118080   8.423511   0.000000
    30  O   10.221694  10.490556  10.939691   2.587613   0.000000
    31  H    9.259136   9.518896   9.988760   1.738410   0.973397
    32  S   14.315921  14.792121  14.846342   6.773692   5.076177
    33  O   14.772799  15.231973  15.357645   7.187424   5.302610
    34  O   14.786308  15.338283  15.235169   7.545641   6.216151
    35  O   14.788435  15.196275  15.337518   7.174750   5.249793
    36  S    8.471467   9.291595   8.586418   5.216534   6.928983
    37  O    7.892005   8.768571   8.000748   5.496298   7.398594
    38  O    9.914161  10.749460   9.986033   6.271359   7.595972
    39  O    7.898206   8.697680   7.923274   5.498673   7.403246
    40  H    6.740002   7.116488   7.407061   1.017702   3.571386
                   31         32         33         34         35
    31  H    0.000000
    32  S    5.893045   0.000000
    33  O    6.161790   1.480737   0.000000
    34  O    6.934285   1.477804   2.470032   0.000000
    35  O    6.120502   1.480458   2.465121   2.470391   0.000000
    36  S    6.551168   7.906182   8.671847   7.674232   8.742020
    37  O    6.934165   8.721390   9.289352   8.551900   9.677472
    38  O    7.384577   7.583612   8.404394   7.085434   8.490729
    39  O    6.938570   8.725565   9.626833   8.534171   9.372093
    40  H    2.666573   7.723041   8.153356   8.419841   8.146803
                   36         37         38         39         40
    36  S    0.000000
    37  O    1.478262   0.000000
    38  O    1.479967   2.458274   0.000000
    39  O    1.478265   2.478619   2.458299   0.000000
    40  H    5.067428   5.201916   6.290194   5.203126   0.000000
 Stoichiometry    C16H11N3O8S2(2-)
 Framework group  C1[X(C16H11N3O8S2)]
 Deg. of freedom   114
 Full point group                 C1      NOp   1
 Largest Abelian subgroup         C1      NOp   1
 Largest concise Abelian subgroup C1      NOp   1
                         Standard orientation:                         
 ---------------------------------------------------------------------
 Center     Atomic      Atomic             Coordinates (Angstroms)
 Number     Number       Type             X           Y           Z
 ---------------------------------------------------------------------
      1          6           0        0.758620    0.268380    0.002811
      2          6           0       -0.030720   -0.881910    0.003531
      3          6           0       -1.453470   -0.812560    0.001121
      4          6           0       -2.062500    0.465940   -0.004239
      5          6           0       -1.245290    1.629410   -0.004379
      6          6           0        0.109110    1.541660   -0.000329
      7          6           0       -2.289670   -1.971509    0.003301
      8          6           0       -3.468460    0.577071   -0.009089
      9          1           0       -1.714560    2.603100   -0.007329
     10          6           0       -4.233960   -0.556189   -0.007689
     11          6           0       -3.655860   -1.833129   -0.000709
     12          1           0       -3.934800    1.552701   -0.015219
     13          1           0       -4.270120   -2.724059   -0.001039
     14          7           0        2.153480    0.245280    0.004091
     15          7           0        2.699120   -0.885560    0.004831
     16          6           0        4.102010   -0.932620    0.004851
     17          6           0        4.685970   -2.199440   -0.000169
     18          6           0        4.925560    0.198530    0.006671
     19          6           0        6.058400   -2.345100   -0.002779
     20          1           0        4.047290   -3.074850   -0.003799
     21          6           0        6.294920    0.057720    0.004741
     22          1           0        4.479800    1.183710    0.008441
     23          6           0        6.890090   -1.216980   -0.001009
     24          1           0        6.499530   -3.334820   -0.006469
     25          1           0        6.927390    0.938100    0.007581
     26          7           0        8.257320   -1.349500    0.041841
     27          1           0        8.650810   -2.238020   -0.226459
     28          1           0        8.814930   -0.553350   -0.225369
     29          8           0        0.537290   -2.096920    0.006141
     30          8           0       -1.790350   -3.227330    0.008511
     31          1           0       -0.817840   -3.185810    0.009631
     32         16           0       -6.029270   -0.434659   -0.002849
     33          8           0       -6.461510   -1.057369    1.269151
     34          8           0       -6.339300    1.008211   -0.079739
     35          8           0       -6.478710   -1.193129   -1.192169
     36         16           0        1.045371    3.094810    0.001441
     37          8           0        1.847781    3.095590    1.242971
     38          8           0        0.009911    4.152220   -0.001569
     39          8           0        1.854631    3.095190   -1.235639
     40          1           0        1.544040   -1.948020    0.006171
 ---------------------------------------------------------------------
 Rotational constants (GHZ):           0.2954229           0.0647006           0.0541902
 Standard basis: 6-311++G(d,p) (5D, 7F)
 There are   760 symmetry adapted cartesian basis functions of A   symmetry.
 There are   731 symmetry adapted basis functions of A   symmetry.
   731 basis functions,  1171 primitive gaussians,   760 cartesian basis functions
   113 alpha electrons      113 beta electrons
       nuclear repulsion energy      3041.9937121166 Hartrees.
 NAtoms=   40 NActive=   40 NUniq=   40 SFac= 1.00D+00 NAtFMM=   60 NAOKFM=F Big=F
 Integral buffers will be    131072 words long.
 Raffenetti 2 integral format.
 Two-electron integral symmetry is turned on.
 ------------------------------------------------------------------------------
 Polarizable Continuum Model (PCM)
 =================================
 Model                : PCM.
 Atomic radii         : UFF (Universal Force Field).
 Polarization charges : Total charges.
 Charge compensation  : None.
 Solution method      : On-the-fly selection.
 Cavity type          : Scaled VdW (van der Waals Surface) (Alpha=1.100).
 Cavity algorithm     : GePol (No added spheres)
                        Default sphere list used, NSphG=   40.
                        Lebedev-Laikov grids with approx.  5.0 points / Ang**2.
                        Smoothing algorithm: York/Karplus (Gamma=1.0000).
                        Polarization charges: spherical gaussians, with
                                              point-specific exponents (IZeta= 3).
                        Self-potential: point-specific (ISelfS= 7).
                        Self-field    : sphere-specific E.n sum rule (ISelfD= 2).
 1st derivatives      : Analytical E(r).r(x)/FMM algorithm (CHGder, D1EAlg=3).
                        Cavity 1st derivative terms included.
 Solvent              : Water, Eps=  78.355300 Eps(inf)=   1.777849
 ------------------------------------------------------------------------------
 One-electron integrals computed using PRISM.
 PrsmSu:  requested number of processors reduced to:  23 ShMem   1 Linda.
 NBasis=   731 RedAO= T EigKep=  1.27D-06  NBF=   731
 NBsUse=   721 1.00D-06 EigRej=  9.00D-07 NBFU=   721
 ExpMin= 3.60D-02 ExpMax= 9.34D+04 ExpMxC= 3.17D+03 IAcc=3 IRadAn=         5 AccDes= 0.00D+00
 Harris functional with IExCor=20419 and IRadAn=       5 diagonalized for initial guess.
 HarFok:  IExCor=20419 AccDes= 0.00D+00 IRadAn=         5 IDoV= 1 UseB2=F ITyADJ=14
 ICtDFT=  3500011 ScaDFX=  1.000000  1.000000  1.000000  1.000000
 FoFCou: FMM=F IPFlag=           0 FMFlag=      100000 FMFlg1=           0
         NFxFlg=           0 DoJE=T BraDBF=F KetDBF=T FulRan=T
         wScrn=  0.000000 ICntrl=       500 IOpCl=  0 I1Cent=   200000004 NGrid=           0
         NMat0=    1 NMatS0=      1 NMatT0=    0 NMatD0=    1 NMtDS0=    0 NMtDT0=    0
 Petite list used in FoFCou.
 Requested convergence on RMS density matrix=1.00D-08 within 128 cycles.
 Requested convergence on MAX density matrix=1.00D-06.
 Requested convergence on             energy=1.00D-06.
 No special actions if energy rises.
 CoulSu:  requested number of processors reduced to:  32 ShMem   1 Linda.
 Inv3:  Mode=1 IEnd=    36331200.
 Iteration    1 A*A^-1 deviation from unit magnitude is 3.33D-15 for   1908.
 Iteration    1 A*A^-1 deviation from orthogonality  is 3.22D-15 for   2775    337.
 Iteration    1 A^-1*A deviation from unit magnitude is 3.33D-15 for   1908.
 Iteration    1 A^-1*A deviation from orthogonality  is 3.55D-15 for   3309   2063.
 CoulSu:  requested number of processors reduced to:  32 ShMem   1 Linda.
 CoulSu:  requested number of processors reduced to:  32 ShMem   1 Linda.
 Error on total polarization charges =  0.02664
 SCF Done:  E(RCAM-B3LYP) =  -2178.82689765     A.U. after   17 cycles
            NFock= 17  Conv=0.59D-08     -V/T= 2.0023

 **********************************************************************

            Population analysis using the SCF Density.

 **********************************************************************

 Orbital symmetries:
       Occupied  (A) (A) (A) (A) (A) (A) (A) (A) (A) (A) (A) (A)
                 (A) (A) (A) (A) (A) (A) (A) (A) (A) (A) (A) (A)
                 (A) (A) (A) (A) (A) (A) (A) (A) (A) (A) (A) (A)
                 (A) (A) (A) (A) (A) (A) (A) (A) (A) (A) (A) (A)
                 (A) (A) (A) (A) (A) (A) (A) (A) (A) (A) (A) (A)
                 (A) (A) (A) (A) (A) (A) (A) (A) (A) (A) (A) (A)
                 (A) (A) (A) (A) (A) (A) (A) (A) (A) (A) (A) (A)
                 (A) (A) (A) (A) (A) (A) (A) (A) (A) (A) (A) (A)
                 (A) (A) (A) (A) (A) (A) (A) (A) (A) (A) (A) (A)
                 (A) (A) (A) (A) (A)
       Virtual   (A) (A) (A) (A) (A) (A) (A) (A) (A) (A) (A) (A)
                 (A) (A) (A) (A) (A) (A) (A) (A) (A) (A) (A) (A)
                 (A) (A) (A) (A) (A) (A) (A) (A) (A) (A) (A) (A)
                 (A) (A) (A) (A) (A) (A) (A) (A) (A) (A) (A) (A)
                 (A) (A) (A) (A) (A) (A) (A) (A) (A) (A) (A) (A)
                 (A) (A) (A) (A) (A) (A) (A) (A) (A) (A) (A) (A)
                 (A) (A) (A) (A) (A) (A) (A) (A) (A) (A) (A) (A)
                 (A) (A) (A) (A) (A) (A) (A) (A) (A) (A) (A) (A)
                 (A) (A) (A) (A) (A) (A) (A) (A) (A) (A) (A) (A)
                 (A) (A) (A) (A) (A) (A) (A) (A) (A) (A) (A) (A)
                 (A) (A) (A) (A) (A) (A) (A) (A) (A) (A) (A) (A)
                 (A) (A) (A) (A) (A) (A) (A) (A) (A) (A) (A) (A)
                 (A) (A) (A) (A) (A) (A) (A) (A) (A) (A) (A) (A)
                 (A) (A) (A) (A) (A) (A) (A) (A) (A) (A) (A) (A)
                 (A) (A) (A) (A) (A) (A) (A) (A) (A) (A) (A) (A)
                 (A) (A) (A) (A) (A) (A) (A) (A) (A) (A) (A) (A)
                 (A) (A) (A) (A) (A) (A) (A) (A) (A) (A) (A) (A)
                 (A) (A) (A) (A) (A) (A) (A) (A) (A) (A) (A) (A)
                 (A) (A) (A) (A) (A) (A) (A) (A) (A) (A) (A) (A)
                 (A) (A) (A) (A) (A) (A) (A) (A) (A) (A) (A) (A)
                 (A) (A) (A) (A) (A) (A) (A) (A) (A) (A) (A) (A)
                 (A) (A) (A) (A) (A) (A) (A) (A) (A) (A) (A) (A)
                 (A) (A) (A) (A) (A) (A) (A) (A) (A) (A) (A) (A)
                 (A) (A) (A) (A) (A) (A) (A) (A) (A) (A) (A) (A)
                 (A) (A) (A) (A) (A) (A) (A) (A) (A) (A) (A) (A)
                 (A) (A) (A) (A) (A) (A) (A) (A) (A) (A) (A) (A)
                 (A) (A) (A) (A) (A) (A) (A) (A) (A) (A) (A) (A)
                 (A) (A) (A) (A) (A) (A) (A) (A) (A) (A) (A) (A)
                 (A) (A) (A) (A) (A) (A) (A) (A) (A) (A) (A) (A)
                 (A) (A) (A) (A) (A) (A) (A) (A) (A) (A) (A) (A)
                 (A) (A) (A) (A) (A) (A) (A) (A) (A) (A) (A) (A)
                 (A) (A) (A) (A) (A) (A) (A) (A) (A) (A) (A) (A)
                 (A) (A) (A) (A) (A) (A) (A) (A) (A) (A) (A) (A)
                 (A) (A) (A) (A) (A) (A) (A) (A) (A) (A) (A) (A)
                 (A) (A) (A) (A) (A) (A) (A) (A) (A) (A) (A) (A)
                 (A) (A) (A) (A) (A) (A) (A) (A) (A) (A) (A) (A)
                 (A) (A) (A) (A) (A) (A) (A) (A) (A) (A) (A) (A)
                 (A) (A) (A) (A) (A) (A) (A) (A) (A) (A) (A) (A)
                 (A) (A) (A) (A) (A) (A) (A) (A) (A) (A) (A) (A)
                 (A) (A) (A) (A) (A) (A) (A) (A) (A) (A) (A) (A)
                 (A) (A) (A) (A) (A) (A) (A) (A) (A) (A) (A) (A)
                 (A) (A) (A) (A) (A) (A) (A) (A) (A) (A) (A) (A)
                 (A) (A) (A) (A) (A) (A) (A) (A) (A) (A) (A) (A)
                 (A) (A) (A) (A) (A) (A) (A) (A) (A) (A) (A) (A)
                 (A) (A) (A) (A) (A) (A) (A) (A) (A) (A) (A) (A)
                 (A) (A) (A) (A) (A) (A) (A) (A) (A) (A) (A) (A)
                 (A) (A) (A) (A) (A) (A) (A) (A) (A) (A) (A) (A)
                 (A) (A) (A) (A) (A) (A) (A) (A) (A) (A) (A) (A)
                 (A) (A) (A) (A) (A) (A) (A) (A) (A) (A) (A) (A)
                 (A) (A) (A) (A) (A) (A) (A) (A) (A) (A) (A) (A)
                 (A) (A) (A) (A) (A) (A) (A) (A)
 The electronic state is 1-A.
 Alpha  occ. eigenvalues --  -89.12181 -89.12143 -19.23942 -19.22773 -19.16200
 Alpha  occ. eigenvalues --  -19.16108 -19.16101 -19.15922 -19.15921 -19.15869
 Alpha  occ. eigenvalues --  -14.45643 -14.44844 -14.40120 -10.34522 -10.33198
 Alpha  occ. eigenvalues --  -10.30720 -10.29774 -10.28500 -10.28234 -10.28166
 Alpha  occ. eigenvalues --  -10.28097 -10.27930 -10.26288 -10.26070 -10.25857
 Alpha  occ. eigenvalues --  -10.25694 -10.25557 -10.25352 -10.25150  -8.18293
 Alpha  occ. eigenvalues --   -8.18275  -6.14652  -6.14641  -6.14629  -6.14618
 Alpha  occ. eigenvalues --   -6.14570  -6.14563  -1.19969  -1.19789  -1.18244
 Alpha  occ. eigenvalues --   -1.15398  -1.13326  -1.05637  -1.05376  -1.05338
 Alpha  occ. eigenvalues --   -1.05254  -1.02018  -0.98522  -0.95780  -0.93300
 Alpha  occ. eigenvalues --   -0.88813  -0.87042  -0.84786  -0.84279  -0.81886
 Alpha  occ. eigenvalues --   -0.77883  -0.74901  -0.73551  -0.71139  -0.70008
 Alpha  occ. eigenvalues --   -0.68634  -0.68208  -0.66108  -0.63935  -0.62503
 Alpha  occ. eigenvalues --   -0.60767  -0.60524  -0.59190  -0.58516  -0.57857
 Alpha  occ. eigenvalues --   -0.56326  -0.55516  -0.54569  -0.53688  -0.52955
 Alpha  occ. eigenvalues --   -0.52546  -0.52236  -0.51975  -0.51787  -0.51154
 Alpha  occ. eigenvalues --   -0.51143  -0.50630  -0.50158  -0.49485  -0.48481
 Alpha  occ. eigenvalues --   -0.48099  -0.46927  -0.46431  -0.45965  -0.44984
 Alpha  occ. eigenvalues --   -0.44812  -0.42702  -0.41947  -0.41724  -0.40482
 Alpha  occ. eigenvalues --   -0.40383  -0.40236  -0.40037  -0.39081  -0.37274
 Alpha  occ. eigenvalues --   -0.36519  -0.36215  -0.35888  -0.35459  -0.35112
 Alpha  occ. eigenvalues --   -0.33068  -0.32762  -0.31922  -0.31699  -0.31572
 Alpha  occ. eigenvalues --   -0.31251  -0.27986  -0.25102
 Alpha virt. eigenvalues --   -0.05955  -0.00682   0.01326   0.01770   0.02309
 Alpha virt. eigenvalues --    0.02363   0.02996   0.03526   0.03864   0.04772
 Alpha virt. eigenvalues --    0.05306   0.05359   0.05767   0.06281   0.06564
 Alpha virt. eigenvalues --    0.06766   0.07121   0.07413   0.07510   0.08548
 Alpha virt. eigenvalues --    0.08752   0.08824   0.09313   0.09579   0.09944
 Alpha virt. eigenvalues --    0.10742   0.10942   0.11165   0.11568   0.11734
 Alpha virt. eigenvalues --    0.11993   0.12398   0.12593   0.13050   0.13711
 Alpha virt. eigenvalues --    0.13977   0.14170   0.14293   0.14370   0.14433
 Alpha virt. eigenvalues --    0.14762   0.14974   0.15166   0.15396   0.15771
 Alpha virt. eigenvalues --    0.16235   0.16646   0.16833   0.17030   0.17087
 Alpha virt. eigenvalues --    0.17246   0.17699   0.17809   0.18108   0.18222
 Alpha virt. eigenvalues --    0.18471   0.18717   0.19052   0.19655   0.19842
 Alpha virt. eigenvalues --    0.20158   0.20293   0.20572   0.20753   0.20934
 Alpha virt. eigenvalues --    0.21143   0.21312   0.21765   0.21999   0.22331
 Alpha virt. eigenvalues --    0.22909   0.23189   0.23311   0.23518   0.23921
 Alpha virt. eigenvalues --    0.24394   0.24588   0.24781   0.25182   0.25289
 Alpha virt. eigenvalues --    0.25368   0.25760   0.26071   0.26668   0.26869
 Alpha virt. eigenvalues --    0.27138   0.27532   0.27987   0.28093   0.28398
 Alpha virt. eigenvalues --    0.28544   0.28753   0.28881   0.28927   0.29346
 Alpha virt. eigenvalues --    0.30249   0.30560   0.30618   0.30812   0.30965
 Alpha virt. eigenvalues --    0.31126   0.31190   0.31788   0.32056   0.32472
 Alpha virt. eigenvalues --    0.32585   0.32670   0.33061   0.33135   0.33245
 Alpha virt. eigenvalues --    0.33413   0.33553   0.33803   0.34306   0.34492
 Alpha virt. eigenvalues --    0.34713   0.34911   0.35071   0.35334   0.35516
 Alpha virt. eigenvalues --    0.35688   0.36162   0.36600   0.37111   0.37280
 Alpha virt. eigenvalues --    0.37421   0.37664   0.37784   0.38558   0.38677
 Alpha virt. eigenvalues --    0.38789   0.38949   0.39438   0.39979   0.40079
 Alpha virt. eigenvalues --    0.40629   0.41194   0.41432   0.42196   0.42601
 Alpha virt. eigenvalues --    0.42807   0.42936   0.43977   0.44286   0.44354
 Alpha virt. eigenvalues --    0.44553   0.45012   0.45555   0.45869   0.46067
 Alpha virt. eigenvalues --    0.46537   0.46977   0.47553   0.48328   0.49427
 Alpha virt. eigenvalues --    0.49496   0.49973   0.51490   0.52005   0.52499
 Alpha virt. eigenvalues --    0.52818   0.54333   0.54524   0.55870   0.57136
 Alpha virt. eigenvalues --    0.57547   0.58121   0.58578   0.59196   0.59624
 Alpha virt. eigenvalues --    0.59784   0.60397   0.60619   0.60918   0.61644
 Alpha virt. eigenvalues --    0.62184   0.62728   0.63417   0.64349   0.64740
 Alpha virt. eigenvalues --    0.65331   0.65517   0.66027   0.66707   0.67450
 Alpha virt. eigenvalues --    0.67580   0.68106   0.68310   0.68825   0.69630
 Alpha virt. eigenvalues --    0.69788   0.70051   0.70581   0.71196   0.71550
 Alpha virt. eigenvalues --    0.71891   0.72877   0.73178   0.73360   0.73715
 Alpha virt. eigenvalues --    0.75001   0.75530   0.76887   0.77306   0.77835
 Alpha virt. eigenvalues --    0.79232   0.79499   0.79842   0.80443   0.81178
 Alpha virt. eigenvalues --    0.82298   0.82490   0.83377   0.83441   0.84566
 Alpha virt. eigenvalues --    0.85082   0.86558   0.87181   0.87628   0.89090
 Alpha virt. eigenvalues --    0.89886   0.90149   0.90913   0.91618   0.92410
 Alpha virt. eigenvalues --    0.93063   0.93762   0.94090   0.94426   0.95446
 Alpha virt. eigenvalues --    0.95868   0.96127   0.96784   0.97555   0.98097
 Alpha virt. eigenvalues --    0.98226   0.98372   0.99251   0.99513   1.00481
 Alpha virt. eigenvalues --    1.01040   1.01506   1.02252   1.02588   1.03222
 Alpha virt. eigenvalues --    1.03891   1.04806   1.05593   1.05787   1.06134
 Alpha virt. eigenvalues --    1.07057   1.07417   1.08118   1.08334   1.09052
 Alpha virt. eigenvalues --    1.09238   1.09905   1.10316   1.11058   1.12238
 Alpha virt. eigenvalues --    1.12618   1.13476   1.14117   1.14259   1.14795
 Alpha virt. eigenvalues --    1.15160   1.15278   1.16184   1.16391   1.18641
 Alpha virt. eigenvalues --    1.19541   1.19816   1.20387   1.20926   1.21141
 Alpha virt. eigenvalues --    1.22573   1.23228   1.23437   1.23741   1.24392
 Alpha virt. eigenvalues --    1.24572   1.25654   1.25699   1.26106   1.26512
 Alpha virt. eigenvalues --    1.26963   1.28111   1.28223   1.28537   1.28595
 Alpha virt. eigenvalues --    1.29425   1.30252   1.31104   1.31343   1.32669
 Alpha virt. eigenvalues --    1.33584   1.33772   1.34037   1.34542   1.34747
 Alpha virt. eigenvalues --    1.35278   1.36967   1.37829   1.38455   1.41708
 Alpha virt. eigenvalues --    1.41934   1.43374   1.44464   1.45464   1.45566
 Alpha virt. eigenvalues --    1.48291   1.51231   1.52996   1.54136   1.55395
 Alpha virt. eigenvalues --    1.56319   1.56378   1.57175   1.57938   1.59503
 Alpha virt. eigenvalues --    1.60305   1.61017   1.62357   1.62592   1.62967
 Alpha virt. eigenvalues --    1.63058   1.64176   1.65070   1.65272   1.65296
 Alpha virt. eigenvalues --    1.66304   1.67863   1.68158   1.68690   1.69345
 Alpha virt. eigenvalues --    1.69491   1.70501   1.71536   1.71810   1.72959
 Alpha virt. eigenvalues --    1.73233   1.75589   1.75999   1.77100   1.77807
 Alpha virt. eigenvalues --    1.78576   1.79568   1.81534   1.82794   1.83528
 Alpha virt. eigenvalues --    1.84438   1.85161   1.86282   1.88394   1.89562
 Alpha virt. eigenvalues --    1.90170   1.91163   1.92067   1.92241   1.93288
 Alpha virt. eigenvalues --    1.93782   1.95198   1.95998   1.96686   1.97445
 Alpha virt. eigenvalues --    1.98609   1.99196   1.99833   1.99915   2.00017
 Alpha virt. eigenvalues --    2.00657   2.01309   2.01512   2.03942   2.04307
 Alpha virt. eigenvalues --    2.05030   2.06349   2.07178   2.07965   2.08588
 Alpha virt. eigenvalues --    2.09222   2.09494   2.12677   2.13257   2.13618
 Alpha virt. eigenvalues --    2.14623   2.15295   2.15335   2.16138   2.17409
 Alpha virt. eigenvalues --    2.19361   2.20262   2.20558   2.23278   2.24011
 Alpha virt. eigenvalues --    2.28762   2.29494   2.32229   2.32363   2.34115
 Alpha virt. eigenvalues --    2.34608   2.37856   2.39132   2.41142   2.42535
 Alpha virt. eigenvalues --    2.43779   2.43837   2.44444   2.49198   2.51704
 Alpha virt. eigenvalues --    2.52743   2.52823   2.54818   2.56048   2.60174
 Alpha virt. eigenvalues --    2.61880   2.63018   2.64136   2.65575   2.67705
 Alpha virt. eigenvalues --    2.69687   2.70078   2.71843   2.72210   2.73877
 Alpha virt. eigenvalues --    2.75182   2.75697   2.77232   2.77395   2.77967
 Alpha virt. eigenvalues --    2.79366   2.79817   2.81001   2.81236   2.81717
 Alpha virt. eigenvalues --    2.83909   2.84769   2.85839   2.85920   2.86269
 Alpha virt. eigenvalues --    2.86393   2.86518   2.87638   2.88700   2.89028
 Alpha virt. eigenvalues --    2.90961   2.91522   2.91554   2.91772   2.91836
 Alpha virt. eigenvalues --    2.91929   2.92316   2.94056   2.94291   2.94705
 Alpha virt. eigenvalues --    2.94874   2.95438   2.95913   2.96592   2.96633
 Alpha virt. eigenvalues --    2.97018   2.97698   2.98258   2.98720   2.98881
 Alpha virt. eigenvalues --    3.00225   3.00988   3.01397   3.04749   3.05441
 Alpha virt. eigenvalues --    3.07018   3.08064   3.08498   3.10315   3.11241
 Alpha virt. eigenvalues --    3.12824   3.13215   3.13957   3.14752   3.15857
 Alpha virt. eigenvalues --    3.17236   3.17564   3.17717   3.19725   3.23034
 Alpha virt. eigenvalues --    3.23989   3.24113   3.25476   3.26122   3.26507
 Alpha virt. eigenvalues --    3.27006   3.27477   3.29230   3.30002   3.31439
 Alpha virt. eigenvalues --    3.33961   3.37153   3.39724   3.42048   3.43656
 Alpha virt. eigenvalues --    3.44689   3.46379   3.47783   3.49487   3.51184
 Alpha virt. eigenvalues --    3.52612   3.55399   3.58139   3.59511   3.59671
 Alpha virt. eigenvalues --    3.63193   3.65289   3.66268   3.67543   3.68119
 Alpha virt. eigenvalues --    3.69852   3.71245   3.71466   3.72826   3.78078
 Alpha virt. eigenvalues --    3.87826   3.88395   3.88547   3.89776   3.94016
 Alpha virt. eigenvalues --    3.95846   4.01015   4.02749   4.07147   4.08152
 Alpha virt. eigenvalues --    4.08924   4.12505   4.19416   4.23448   4.26185
 Alpha virt. eigenvalues --    4.28508   4.31985   4.35460   4.43326   4.62429
 Alpha virt. eigenvalues --    4.84614   4.92645   4.92784   4.93183   4.94443
 Alpha virt. eigenvalues --    5.07210   5.09005   5.09662   5.10161   5.10514
 Alpha virt. eigenvalues --    5.12842   5.14259   5.14555   5.14867   5.16417
 Alpha virt. eigenvalues --    5.17218   5.18488   5.19758   5.20858   5.21892
 Alpha virt. eigenvalues --    5.22781   5.27157   5.35923   5.36635   5.40194
 Alpha virt. eigenvalues --    5.42554   5.53967   5.58376   5.64971   5.89189
 Alpha virt. eigenvalues --    5.92987   8.28969   8.32238  17.47696  17.48849
 Alpha virt. eigenvalues --   17.49381  17.52034  17.58213  17.61375  23.55922
 Alpha virt. eigenvalues --   23.71087  23.82952  23.93134  23.96738  24.01748
 Alpha virt. eigenvalues --   24.02279  24.03260  24.06998  24.10465  24.11244
 Alpha virt. eigenvalues --   24.17391  24.19733  24.24632  24.25319  24.26648
 Alpha virt. eigenvalues --   35.58763  35.71155  35.76961  49.93969  49.95293
 Alpha virt. eigenvalues --   49.96815  49.98286  50.03142  50.03385  50.04342
 Alpha virt. eigenvalues --   50.05599 189.30959 189.34709
          Condensed to atoms (all electrons):
               1          2          3          4          5          6
     1  C   11.282743  -0.291593   0.830872  -0.926031   1.438153  -4.076878
     2  C   -0.291593   9.468396   2.787653   0.380363   1.474658   0.738986
     3  C    0.830872   2.787653  17.195492   5.484339   2.514709  -2.333061
     4  C   -0.926031   0.380363   5.484339  18.588916  -0.617199  -2.312586
     5  C    1.438153   1.474658   2.514709  -0.617199  11.515549  -3.595190
     6  C   -4.076878   0.738986  -2.333061  -2.312586  -3.595190  18.552809
     7  C    0.236322  -4.019651  -3.874895  -1.063076  -1.963965  -1.027010
     8  C   -2.740324  -1.289289  -2.883212  -2.412356  -4.559211   5.178911
     9  H   -0.016050   0.089509   0.096028   0.151000   0.660923  -0.121868
    10  C   -1.250372  -0.891238  -4.182307  -6.902792   0.910923   0.785656
    11  C    1.113713  -1.811803  -9.332186  -2.803344  -1.926691  -0.927166
    12  H   -0.006493  -0.036447  -0.094330   0.014933  -0.334037   0.154441
    13  H    0.007539  -0.017952  -0.251013   0.102339  -0.101589   0.010140
    14  N    0.911450  -0.582283  -0.145779  -0.547699  -0.157461  -0.742378
    15  N   -1.350580   0.489354  -0.088895   0.447774   0.064871   0.917554
    16  C   -0.510756  -0.260449  -0.336450  -0.228236  -0.203622   0.056041
    17  C   -0.044295   0.059562   0.075788   0.107669  -0.036248  -0.077529
    18  C    0.213956   0.070108   0.073243  -0.013948   0.163968   0.083173
    19  C   -0.250271   0.022986  -0.038025  -0.001405  -0.012699   0.047697
    20  H    0.006917   0.014383  -0.003130   0.000261   0.000196  -0.001582
    21  C    0.475998   0.018319   0.050027   0.001975   0.053403  -0.131672
    22  H   -0.033002   0.037573  -0.002258   0.010672  -0.003231   0.068170
    23  C    0.091824   0.011227   0.016184   0.007325   0.002046   0.029201
    24  H   -0.005344  -0.000396  -0.001088  -0.000434  -0.000172   0.000481
    25  H    0.000324  -0.002564   0.000091  -0.000469   0.000146  -0.005876
    26  N   -0.001040   0.000014  -0.000067  -0.000016  -0.000001  -0.000029
    27  H   -0.000397   0.000001  -0.000055  -0.000008  -0.000014   0.000144
    28  H    0.000928   0.000126   0.000065   0.000021   0.000033  -0.000148
    29  O   -0.102502   0.226684  -0.107603  -0.100747   0.026451   0.050886
    30  O    0.020750   0.003488   0.213703   0.006063   0.023937   0.002945
    31  H    0.007651  -0.019458  -0.220829  -0.001767  -0.033721   0.017367
    32  S   -0.013613  -0.013942  -0.101244  -1.113848   0.529819  -0.195089
    33  O    0.000838   0.003834   0.011384   0.074414   0.001332  -0.005482
    34  O   -0.000606  -0.009885  -0.019988  -0.065745  -0.012762  -0.017373
    35  O    0.000983   0.002077   0.013356   0.097287   0.000479  -0.004292
    36  S    1.207455  -0.585162  -0.209541  -0.978503   0.090024  -4.179698
    37  O   -0.049084  -0.026930  -0.013729  -0.005223  -0.070042  -0.087047
    38  O    0.249046   0.005941   0.133408  -0.019816   0.409805  -0.072713
    39  O   -0.051697  -0.026339  -0.012703  -0.003068  -0.067224  -0.085265
    40  H   -0.197972   0.074908   0.199680   0.018493   0.065976  -0.009800
               7          8          9         10         11         12
     1  C    0.236322  -2.740324  -0.016050  -1.250372   1.113713  -0.006493
     2  C   -4.019651  -1.289289   0.089509  -0.891238  -1.811803  -0.036447
     3  C   -3.874895  -2.883212   0.096028  -4.182307  -9.332186  -0.094330
     4  C   -1.063076  -2.412356   0.151000  -6.902792  -2.803344   0.014933
     5  C   -1.963965  -4.559211   0.660923   0.910923  -1.926691  -0.334037
     6  C   -1.027010   5.178911  -0.121868   0.785656  -0.927166   0.154441
     7  C   21.168274   0.008061  -0.047777  -4.180471   2.282697   0.068907
     8  C    0.008061  17.190247  -0.406609  -1.926799  -0.804991   0.681045
     9  H   -0.047777  -0.406609   0.554492   0.083156  -0.040243  -0.045690
    10  C   -4.180471  -1.926799   0.083156  27.440899  -1.229165  -0.067299
    11  C    2.282697  -0.804991  -0.040243  -1.229165  21.214377   0.060577
    12  H    0.068907   0.681045  -0.045690  -0.067299   0.060577   0.545033
    13  H   -0.269923   0.063476  -0.002939   0.086367   0.764009   0.011903
    14  N    0.031127  -0.002863  -0.015912  -0.040648   0.007001   0.000292
    15  N   -0.197718   0.114532   0.016593   0.080008  -0.072292  -0.000731
    16  C   -0.012072  -0.106412  -0.004178  -0.027676   0.004244   0.000109
    17  C    0.031175   0.040064  -0.002831   0.003565   0.003536   0.000328
    18  C    0.001923  -0.001385   0.005046   0.001961   0.006483  -0.000330
    19  C    0.007201  -0.001279  -0.000080   0.000222   0.002002   0.000005
    20  H    0.008317   0.000158  -0.000061  -0.000558   0.003282   0.000010
    21  C   -0.004231   0.004152  -0.000413  -0.000690   0.000174   0.000043
    22  H   -0.003644   0.005657   0.000377   0.002777  -0.001106  -0.000055
    23  C    0.002220   0.000280   0.000351   0.000258   0.000153  -0.000018
    24  H   -0.000260  -0.000066  -0.000005  -0.000022  -0.000019   0.000000
    25  H   -0.000046  -0.000048  -0.000042  -0.000034   0.000007   0.000002
    26  N    0.000000  -0.000001  -0.000001  -0.000000   0.000000   0.000000
    27  H    0.000010  -0.000003   0.000001   0.000000   0.000001  -0.000000
    28  H   -0.000002   0.000006  -0.000001   0.000000  -0.000000   0.000000
    29  O   -0.221629  -0.025710   0.000308   0.020082   0.032211  -0.000123
    30  O    0.220422  -0.010324   0.000165  -0.010411  -0.539385   0.000405
    31  H    0.162907   0.024571  -0.000746  -0.051634   0.176010   0.001233
    32  S   -0.019464  -0.213111   0.043200  -1.799412   0.862171  -0.186293
    33  O   -0.175606   0.073233   0.001140   0.383087  -0.347425  -0.004678
    34  O    0.119861   0.207697   0.004427  -0.560691   0.400401  -0.027759
    35  O   -0.184147   0.084119   0.000839   0.379926  -0.390013   0.000187
    36  S   -0.232844   0.024542  -0.206556  -0.378776  -0.085225   0.035855
    37  O   -0.003781  -0.029905  -0.001642  -0.009295  -0.000612   0.000761
    38  O    0.006883   0.035586  -0.059832  -0.025065   0.007971   0.007190
    39  O   -0.003999  -0.031713  -0.001037  -0.009153  -0.000663   0.000646
    40  H   -0.213924   0.001659   0.003125   0.039951  -0.156657  -0.000762
              13         14         15         16         17         18
     1  C    0.007539   0.911450  -1.350580  -0.510756  -0.044295   0.213956
     2  C   -0.017952  -0.582283   0.489354  -0.260449   0.059562   0.070108
     3  C   -0.251013  -0.145779  -0.088895  -0.336450   0.075788   0.073243
     4  C    0.102339  -0.547699   0.447774  -0.228236   0.107669  -0.013948
     5  C   -0.101589  -0.157461   0.064871  -0.203622  -0.036248   0.163968
     6  C    0.010140  -0.742378   0.917554   0.056041  -0.077529   0.083173
     7  C   -0.269923   0.031127  -0.197718  -0.012072   0.031175   0.001923
     8  C    0.063476  -0.002863   0.114532  -0.106412   0.040064  -0.001385
     9  H   -0.002939  -0.015912   0.016593  -0.004178  -0.002831   0.005046
    10  C    0.086367  -0.040648   0.080008  -0.027676   0.003565   0.001961
    11  C    0.764009   0.007001  -0.072292   0.004244   0.003536   0.006483
    12  H    0.011903   0.000292  -0.000731   0.000109   0.000328  -0.000330
    13  H    0.511123   0.000660  -0.001072  -0.000331   0.000017   0.000209
    14  N    0.000660  15.538419  -8.579516   2.119229  -1.364823   0.548375
    15  N   -0.001072  -8.579516  16.648503  -2.452234   1.158444  -0.591301
    16  C   -0.000331   2.119229  -2.452234  15.221311  -0.632932  -0.653569
    17  C    0.000017  -1.364823   1.158444  -0.632932   6.655891  -0.848578
    18  C    0.000209   0.548375  -0.591301  -0.653569  -0.848578   9.875348
    19  C   -0.000044  -0.691123   0.410836   0.558055  -0.111623   1.206345
    20  H    0.000076  -0.000086   0.006155  -0.107664   0.422048   0.020333
    21  C    0.000049  -0.078414   0.423174  -6.152881   0.832349  -2.516182
    22  H   -0.000037  -0.118609   0.147208  -0.186131   0.023051   0.453490
    23  C    0.000005  -0.077180   0.144825  -0.495654  -0.239122  -1.818158
    24  H   -0.000001   0.003658  -0.009173   0.046545  -0.054316   0.046166
    25  H    0.000001   0.016293  -0.021460   0.058815   0.010376   0.045976
    26  N   -0.000000  -0.000909   0.002256  -0.005950   0.035015   0.063036
    27  H   -0.000000  -0.000092  -0.000400   0.003452   0.018920  -0.000517
    28  H    0.000000  -0.000798   0.001581  -0.010035  -0.006436  -0.018303
    29  O   -0.000135   0.308067  -0.237305   0.102551  -0.102520   0.005699
    30  O   -0.034132   0.006469  -0.000971   0.001420  -0.003251   0.001176
    31  H    0.003600  -0.011389   0.001470   0.006263   0.011374  -0.008323
    32  S   -0.135203  -0.000613   0.000948  -0.000677   0.000008   0.000183
    33  O    0.000352  -0.000001   0.000001  -0.000001  -0.000000   0.000000
    34  O    0.002777   0.000002  -0.000002   0.000001   0.000001  -0.000001
    35  O    0.009121  -0.000001   0.000001  -0.000002   0.000000   0.000000
    36  S    0.000551   0.766629  -0.579964   0.485470   0.042409  -0.316044
    37  O    0.000011   0.001380   0.012501   0.060311   0.001078  -0.036215
    38  O    0.000171  -0.089154  -0.067613  -0.065153  -0.002743   0.062559
    39  O    0.000009  -0.002338   0.016674   0.060828   0.002259  -0.038759
    40  H   -0.001765  -0.035155   0.147424  -0.291489  -0.037098   0.122127
              19         20         21         22         23         24
     1  C   -0.250271   0.006917   0.475998  -0.033002   0.091824  -0.005344
     2  C    0.022986   0.014383   0.018319   0.037573   0.011227  -0.000396
     3  C   -0.038025  -0.003130   0.050027  -0.002258   0.016184  -0.001088
     4  C   -0.001405   0.000261   0.001975   0.010672   0.007325  -0.000434
     5  C   -0.012699   0.000196   0.053403  -0.003231   0.002046  -0.000172
     6  C    0.047697  -0.001582  -0.131672   0.068170   0.029201   0.000481
     7  C    0.007201   0.008317  -0.004231  -0.003644   0.002220  -0.000260
     8  C   -0.001279   0.000158   0.004152   0.005657   0.000280  -0.000066
     9  H   -0.000080  -0.000061  -0.000413   0.000377   0.000351  -0.000005
    10  C    0.000222  -0.000558  -0.000690   0.002777   0.000258  -0.000022
    11  C    0.002002   0.003282   0.000174  -0.001106   0.000153  -0.000019
    12  H    0.000005   0.000010   0.000043  -0.000055  -0.000018   0.000000
    13  H   -0.000044   0.000076   0.000049  -0.000037   0.000005  -0.000001
    14  N   -0.691123  -0.000086  -0.078414  -0.118609  -0.077180   0.003658
    15  N    0.410836   0.006155   0.423174   0.147208   0.144825  -0.009173
    16  C    0.558055  -0.107664  -6.152881  -0.186131  -0.495654   0.046545
    17  C   -0.111623   0.422048   0.832349   0.023051  -0.239122  -0.054316
    18  C    1.206345   0.020333  -2.516182   0.453490  -1.818158   0.046166
    19  C   12.663067  -0.088362  -5.299719  -0.047540  -2.497676   0.621672
    20  H   -0.088362   0.491286   0.073115   0.000110   0.021947  -0.019359
    21  C   -5.299719   0.073115  15.952174   0.062056   2.334115  -0.126204
    22  H   -0.047540   0.000110   0.062056   0.516192  -0.045204  -0.000051
    23  C   -2.497676   0.021947   2.334115  -0.045204   9.080157  -0.210991
    24  H    0.621672  -0.019359  -0.126204  -0.000051  -0.210991   0.500212
    25  H    0.005718   0.001689   0.340820  -0.020503  -0.134685  -0.000140
    26  N   -0.029189  -0.000143  -0.099398   0.002615   0.019588  -0.007644
    27  H   -0.011891   0.001360   0.000028  -0.001279  -0.033352  -0.003477
    28  H   -0.013092  -0.000358   0.036662   0.003311  -0.017816   0.001449
    29  O   -0.030574   0.000165  -0.004183  -0.000530  -0.001248  -0.000405
    30  O   -0.000531  -0.000831   0.000062   0.000022   0.000014   0.000005
    31  H    0.005401   0.001509  -0.001646   0.000354  -0.000304   0.000046
    32  S    0.000003  -0.000013  -0.000003   0.000053   0.000004  -0.000001
    33  O    0.000000  -0.000000  -0.000000   0.000000   0.000000  -0.000000
    34  O    0.000000   0.000000  -0.000000   0.000000   0.000000  -0.000000
    35  O    0.000000  -0.000000  -0.000000   0.000000   0.000000  -0.000000
    36  S    0.047792  -0.001954  -0.063247  -0.064759  -0.040505   0.000993
    37  O    0.005787  -0.000166  -0.020397  -0.006579  -0.001884   0.000060
    38  O   -0.001436   0.000110   0.013553   0.001665   0.000390  -0.000011
    39  O    0.006160  -0.000171  -0.020877  -0.005955  -0.001553   0.000062
    40  H   -0.144239  -0.022649   0.086511  -0.000946   0.045607  -0.000773
              25         26         27         28         29         30
     1  C    0.000324  -0.001040  -0.000397   0.000928  -0.102502   0.020750
     2  C   -0.002564   0.000014   0.000001   0.000126   0.226684   0.003488
     3  C    0.000091  -0.000067  -0.000055   0.000065  -0.107603   0.213703
     4  C   -0.000469  -0.000016  -0.000008   0.000021  -0.100747   0.006063
     5  C    0.000146  -0.000001  -0.000014   0.000033   0.026451   0.023937
     6  C   -0.005876  -0.000029   0.000144  -0.000148   0.050886   0.002945
     7  C   -0.000046   0.000000   0.000010  -0.000002  -0.221629   0.220422
     8  C   -0.000048  -0.000001  -0.000003   0.000006  -0.025710  -0.010324
     9  H   -0.000042  -0.000001   0.000001  -0.000001   0.000308   0.000165
    10  C   -0.000034  -0.000000   0.000000   0.000000   0.020082  -0.010411
    11  C    0.000007   0.000000   0.000001  -0.000000   0.032211  -0.539385
    12  H    0.000002   0.000000  -0.000000   0.000000  -0.000123   0.000405
    13  H    0.000001  -0.000000  -0.000000   0.000000  -0.000135  -0.034132
    14  N    0.016293  -0.000909  -0.000092  -0.000798   0.308067   0.006469
    15  N   -0.021460   0.002256  -0.000400   0.001581  -0.237305  -0.000971
    16  C    0.058815  -0.005950   0.003452  -0.010035   0.102551   0.001420
    17  C    0.010376   0.035015   0.018920  -0.006436  -0.102520  -0.003251
    18  C    0.045976   0.063036  -0.000517  -0.018303   0.005699   0.001176
    19  C    0.005718  -0.029189  -0.011891  -0.013092  -0.030574  -0.000531
    20  H    0.001689  -0.000143   0.001360  -0.000358   0.000165  -0.000831
    21  C    0.340820  -0.099398   0.000028   0.036662  -0.004183   0.000062
    22  H   -0.020503   0.002615  -0.001279   0.003311  -0.000530   0.000022
    23  C   -0.134685   0.019588  -0.033352  -0.017816  -0.001248   0.000014
    24  H   -0.000140  -0.007644  -0.003477   0.001449  -0.000405   0.000005
    25  H    0.492760  -0.012632   0.003187  -0.005243  -0.000002  -0.000000
    26  N   -0.012632   6.649310   0.375849   0.378383  -0.000006  -0.000000
    27  H    0.003187   0.375849   0.402698  -0.033568   0.000013  -0.000000
    28  H   -0.005243   0.378383  -0.033568   0.401082  -0.000005  -0.000000
    29  O   -0.000002  -0.000006   0.000013  -0.000005   8.428373   0.018850
    30  O   -0.000000  -0.000000  -0.000000  -0.000000   0.018850   8.170426
    31  H    0.000009   0.000001   0.000001  -0.000001   0.031826   0.233395
    32  S   -0.000000  -0.000000   0.000000   0.000000   0.002101   0.002436
    33  O   -0.000000   0.000000   0.000000  -0.000000   0.000011   0.000128
    34  O    0.000000  -0.000000  -0.000000   0.000000   0.000012  -0.000000
    35  O   -0.000000  -0.000000   0.000000  -0.000000   0.000014   0.000078
    36  S    0.006875   0.000202   0.000043  -0.000281   0.002387  -0.000653
    37  O    0.000379   0.000005   0.000005  -0.000033   0.000813  -0.000009
    38  O   -0.000086  -0.000000  -0.000001   0.000005   0.000130   0.000027
    39  O    0.000154   0.000006   0.000005  -0.000027   0.000765  -0.000007
    40  H   -0.001089  -0.000582  -0.000243   0.000204   0.146070   0.015024
              31         32         33         34         35         36
     1  C    0.007651  -0.013613   0.000838  -0.000606   0.000983   1.207455
     2  C   -0.019458  -0.013942   0.003834  -0.009885   0.002077  -0.585162
     3  C   -0.220829  -0.101244   0.011384  -0.019988   0.013356  -0.209541
     4  C   -0.001767  -1.113848   0.074414  -0.065745   0.097287  -0.978503
     5  C   -0.033721   0.529819   0.001332  -0.012762   0.000479   0.090024
     6  C    0.017367  -0.195089  -0.005482  -0.017373  -0.004292  -4.179698
     7  C    0.162907  -0.019464  -0.175606   0.119861  -0.184147  -0.232844
     8  C    0.024571  -0.213111   0.073233   0.207697   0.084119   0.024542
     9  H   -0.000746   0.043200   0.001140   0.004427   0.000839  -0.206556
    10  C   -0.051634  -1.799412   0.383087  -0.560691   0.379926  -0.378776
    11  C    0.176010   0.862171  -0.347425   0.400401  -0.390013  -0.085225
    12  H    0.001233  -0.186293  -0.004678  -0.027759   0.000187   0.035855
    13  H    0.003600  -0.135203   0.000352   0.002777   0.009121   0.000551
    14  N   -0.011389  -0.000613  -0.000001   0.000002  -0.000001   0.766629
    15  N    0.001470   0.000948   0.000001  -0.000002   0.000001  -0.579964
    16  C    0.006263  -0.000677  -0.000001   0.000001  -0.000002   0.485470
    17  C    0.011374   0.000008  -0.000000   0.000001   0.000000   0.042409
    18  C   -0.008323   0.000183   0.000000  -0.000001   0.000000  -0.316044
    19  C    0.005401   0.000003   0.000000   0.000000   0.000000   0.047792
    20  H    0.001509  -0.000013  -0.000000   0.000000  -0.000000  -0.001954
    21  C   -0.001646  -0.000003  -0.000000  -0.000000  -0.000000  -0.063247
    22  H    0.000354   0.000053   0.000000   0.000000   0.000000  -0.064759
    23  C   -0.000304   0.000004   0.000000   0.000000   0.000000  -0.040505
    24  H    0.000046  -0.000001  -0.000000  -0.000000  -0.000000   0.000993
    25  H    0.000009  -0.000000  -0.000000   0.000000  -0.000000   0.006875
    26  N    0.000001  -0.000000   0.000000  -0.000000  -0.000000   0.000202
    27  H    0.000001   0.000000   0.000000  -0.000000   0.000000   0.000043
    28  H   -0.000001   0.000000  -0.000000   0.000000  -0.000000  -0.000281
    29  O    0.031826   0.002101   0.000011   0.000012   0.000014   0.002387
    30  O    0.233395   0.002436   0.000128  -0.000000   0.000078  -0.000653
    31  H    0.358244  -0.003612  -0.000366   0.000405  -0.000411   0.000760
    32  S   -0.003612  17.252798   0.178810   0.007194   0.147776  -0.023469
    33  O   -0.000366   0.178810   8.639343  -0.216005  -0.232472  -0.000240
    34  O    0.000405   0.007194  -0.216005   8.842262  -0.218666  -0.000723
    35  O   -0.000411   0.147776  -0.232472  -0.218666   8.688391  -0.000203
    36  S    0.000760  -0.023469  -0.000240  -0.000723  -0.000203  20.656582
    37  O   -0.000069  -0.000230  -0.000000  -0.000001  -0.000000   0.492615
    38  O   -0.000199  -0.000755  -0.000001  -0.000016  -0.000000  -0.992359
    39  O   -0.000074  -0.000213  -0.000000  -0.000001  -0.000000   0.488056
    40  H   -0.051455   0.002269   0.000052  -0.000108   0.000070  -0.023379
              37         38         39         40
     1  C   -0.049084   0.249046  -0.051697  -0.197972
     2  C   -0.026930   0.005941  -0.026339   0.074908
     3  C   -0.013729   0.133408  -0.012703   0.199680
     4  C   -0.005223  -0.019816  -0.003068   0.018493
     5  C   -0.070042   0.409805  -0.067224   0.065976
     6  C   -0.087047  -0.072713  -0.085265  -0.009800
     7  C   -0.003781   0.006883  -0.003999  -0.213924
     8  C   -0.029905   0.035586  -0.031713   0.001659
     9  H   -0.001642  -0.059832  -0.001037   0.003125
    10  C   -0.009295  -0.025065  -0.009153   0.039951
    11  C   -0.000612   0.007971  -0.000663  -0.156657
    12  H    0.000761   0.007190   0.000646  -0.000762
    13  H    0.000011   0.000171   0.000009  -0.001765
    14  N    0.001380  -0.089154  -0.002338  -0.035155
    15  N    0.012501  -0.067613   0.016674   0.147424
    16  C    0.060311  -0.065153   0.060828  -0.291489
    17  C    0.001078  -0.002743   0.002259  -0.037098
    18  C   -0.036215   0.062559  -0.038759   0.122127
    19  C    0.005787  -0.001436   0.006160  -0.144239
    20  H   -0.000166   0.000110  -0.000171  -0.022649
    21  C   -0.020397   0.013553  -0.020877   0.086511
    22  H   -0.006579   0.001665  -0.005955  -0.000946
    23  C   -0.001884   0.000390  -0.001553   0.045607
    24  H    0.000060  -0.000011   0.000062  -0.000773
    25  H    0.000379  -0.000086   0.000154  -0.001089
    26  N    0.000005  -0.000000   0.000006  -0.000582
    27  H    0.000005  -0.000001   0.000005  -0.000243
    28  H   -0.000033   0.000005  -0.000027   0.000204
    29  O    0.000813   0.000130   0.000765   0.146070
    30  O   -0.000009   0.000027  -0.000007   0.015024
    31  H   -0.000069  -0.000199  -0.000074  -0.051455
    32  S   -0.000230  -0.000755  -0.000213   0.002269
    33  O   -0.000000  -0.000001  -0.000000   0.000052
    34  O   -0.000001  -0.000016  -0.000001  -0.000108
    35  O   -0.000000  -0.000000  -0.000000   0.000070
    36  S    0.492615  -0.992359   0.488056  -0.023379
    37  O    8.699772  -0.291162  -0.234409  -0.000969
    38  O   -0.291162   9.386323  -0.290615   0.002902
    39  O   -0.234409  -0.290615   8.698457  -0.000969
    40  H   -0.000969   0.002902  -0.000969   0.515038
 Mulliken charges:
               1
     1  C   -0.178563
     2  C   -0.094767
     3  C    0.556364
     4  C    0.624471
     5  C   -0.252320
     6  C   -0.684870
     7  C   -0.636170
     8  C   -0.292384
     9  H    0.263834
    10  C   -0.674329
    11  C   -0.472032
    12  H    0.221140
    13  H    0.241631
    14  N    0.026174
    15  N   -0.001461
    16  C   -0.040091
    17  C    0.029420
    18  C   -0.209270
    19  C   -0.340151
    20  H    0.173661
    21  C   -0.238600
    22  H    0.206066
    23  C   -0.192372
    24  H    0.219002
    25  H    0.221294
    26  N   -0.368675
    27  H    0.279582
    28  H    0.282291
    29  O   -0.469242
    30  O   -0.340904
    31  H    0.361606
    32  S    0.791030
    33  O   -0.385681
    34  O   -0.434708
    35  O   -0.394500
    36  S    0.614846
    37  O   -0.386067
    38  O   -0.344934
    39  O   -0.385250
    40  H    0.704931
 Sum of Mulliken charges =  -2.00000
 Mulliken charges with hydrogens summed into heavy atoms:
               1
     1  C   -0.178563
     2  C   -0.094767
     3  C    0.556364
     4  C    0.624471
     5  C    0.011513
     6  C   -0.684870
     7  C   -0.636170
     8  C   -0.071244
    10  C   -0.674329
    11  C   -0.230401
    14  N    0.026174
    15  N   -0.001461
    16  C   -0.040091
    17  C    0.203081
    18  C   -0.003205
    19  C   -0.121149
    21  C   -0.017306
    23  C   -0.192372
    26  N    0.193197
    29  O    0.235689
    30  O    0.020702
    32  S    0.791030
    33  O   -0.385681
    34  O   -0.434708
    35  O   -0.394500
    36  S    0.614846
    37  O   -0.386067
    38  O   -0.344934
    39  O   -0.385250
 Electronic spatial extent (au):  <R**2>=          18118.6400
 Charge=             -2.0000 electrons
 Dipole moment (field-independent basis, Debye):
    X=             34.1536    Y=            -15.9438    Z=             -1.0417  Tot=             37.7062
 Quadrupole moment (field-independent basis, Debye-Ang):
   XX=           -359.9924   YY=           -258.3533   ZZ=           -208.9062
   XY=            -55.5231   XZ=             -8.9805   YZ=              1.4352
 Traceless Quadrupole moment (field-independent basis, Debye-Ang):
   XX=            -84.2418   YY=             17.3973   ZZ=             66.8444
   XY=            -55.5231   XZ=             -8.9805   YZ=              1.4352
 Octapole moment (field-independent basis, Debye-Ang**2):
  XXX=           2065.9173  YYY=           -266.4527  ZZZ=             -2.1195  XYY=             63.7857
  XXY=            -25.3919  XXZ=            -80.2013  XZZ=             19.3482  YZZ=            -13.2475
  YYZ=             -1.9179  XYZ=             12.8408
 Hexadecapole moment (field-independent basis, Debye-Ang**3):
 XXXX=         -24205.1398 YYYY=          -5191.9254 ZZZZ=           -478.8829 XXXY=          -1561.2203
 XXXZ=           -718.3810 YYYX=           -493.8718 YYYZ=              5.0580 ZZZX=             -1.3370
 ZZZY=              1.3806 XXYY=          -4068.4003 XXZZ=          -3994.4140 YYZZ=           -893.3683
 XXYZ=            112.1046 YYXZ=            -32.6098 ZZXY=            -88.9971
 N-N= 3.041993712117D+03 E-N=-1.126236291597D+04  KE= 2.173767223854D+03
 PrsmSu:  requested number of processors reduced to:  25 ShMem   1 Linda.
 D1PCM: PCM CHGder 1st derivatives, ID1Alg=3 FixD1E=F DoIter=F DoCFld=F I1PDM=0.
 CoulSu:  requested number of processors reduced to:  34 ShMem   1 Linda.
 CoulSu:  requested number of processors reduced to:  34 ShMem   1 Linda.
 CoulSu:  requested number of processors reduced to:  25 ShMem   1 Linda.
 CoulSu:  requested number of processors reduced to:  26 ShMem   1 Linda.
 Calling FoFJK, ICntrl=      2127 FMM=F ISym2X=0 I1Cent= 0 IOpClX= 0 NMat=1 NMatS=1 NMatT=0.
 ***** Axes restored to original set *****
 -------------------------------------------------------------------
 Center     Atomic                   Forces (Hartrees/Bohr)
 Number     Number              X              Y              Z
 -------------------------------------------------------------------
      1        6          -0.000018061    0.000046859   -0.000001595
      2        6          -0.000001842    0.000001624   -0.000002880
      3        6           0.000000727   -0.000019126    0.000004051
      4        6           0.000002581   -0.000000095    0.000000407
      5        6           0.000003505    0.000002569   -0.000000547
      6        6           0.000001060   -0.000021937   -0.000003150
      7        6          -0.000023689   -0.000004548    0.000001041
      8        6          -0.000028556   -0.000005752    0.000015831
      9        1           0.000001094    0.000001988   -0.000000508
     10        6          -0.000002190    0.000019084   -0.000018339
     11        6           0.000007778   -0.000003981   -0.000004397
     12        1           0.000004211   -0.000000454   -0.000007838
     13        1           0.000002825    0.000001190   -0.000003710
     14        7           0.000013990    0.000030553    0.000002939
     15        7           0.000002387   -0.000031744    0.000003531
     16        6           0.000014916    0.000027428   -0.000004228
     17        6           0.000023179    0.000001833   -0.000001588
     18        6           0.000009753   -0.000022187    0.000000648
     19        6           0.000003103   -0.000002649    0.000003708
     20        1          -0.000003486   -0.000004974    0.000002148
     21        6          -0.000013976   -0.000003866   -0.000000661
     22        1          -0.000008927    0.000016523    0.000002760
     23        6          -0.000037732   -0.000010657   -0.000009730
     24        1          -0.000001597    0.000000675    0.000001344
     25        1          -0.000003640    0.000003474    0.000000178
     26        7           0.000022113    0.000010856    0.000037043
     27        1           0.000003588   -0.000005569   -0.000012233
     28        1           0.000003201   -0.000000743   -0.000012312
     29        8           0.000082616   -0.000009736    0.000005734
     30        8           0.000032829    0.000002620    0.000006485
     31        1          -0.000021387   -0.000010381   -0.000001611
     32       16           0.000005980   -0.000000759   -0.000008769
     33        8          -0.000010557   -0.000002763    0.000013804
     34        8           0.000000384    0.000006275    0.000007914
     35        8           0.000004862   -0.000004657   -0.000002663
     36       16           0.000000137    0.000018042   -0.000002232
     37        8           0.000006403   -0.000019486   -0.000004748
     38        8          -0.000002968    0.000005277   -0.000005426
     39        8           0.000003311   -0.000005803   -0.000000262
     40        1          -0.000077926   -0.000005005   -0.000000141
 -------------------------------------------------------------------
 Cartesian Forces:  Max     0.000082616 RMS     0.000016116

 GradGradGradGradGradGradGradGradGradGradGradGradGradGradGradGradGradGrad
 Berny optimization.
 FormGI is forming the generalized inverse of G from B-inverse, IUseBI=4.
 Internal  Forces:  Max     0.000077932 RMS     0.000011623
 Search for a local minimum.
 Step number   1 out of a maximum of  212
 All quantities printed in internal units (Hartrees-Bohrs-Radians)
 Mixed Optimization -- En-DIIS/RFO-DIIS
 Second derivative matrix not updated -- first step.
 ITU=  0
     Eigenvalues ---    0.00230   0.00378   0.01380   0.01532   0.01643
     Eigenvalues ---    0.01757   0.01777   0.01832   0.01843   0.01893
     Eigenvalues ---    0.01935   0.02028   0.02032   0.02035   0.02047
     Eigenvalues ---    0.02073   0.02085   0.02125   0.02167   0.02178
     Eigenvalues ---    0.02178   0.02199   0.02226   0.02235   0.02264
     Eigenvalues ---    0.02273   0.02287   0.02319   0.02334   0.02343
     Eigenvalues ---    0.02469   0.03205   0.03469   0.12175   0.12445
     Eigenvalues ---    0.12566   0.12577   0.16000   0.16000   0.16000
     Eigenvalues ---    0.16000   0.16000   0.16000   0.16000   0.16000
     Eigenvalues ---    0.16000   0.16000   0.16000   0.22000   0.22958
     Eigenvalues ---    0.23319   0.23496   0.23721   0.23996   0.24979
     Eigenvalues ---    0.24999   0.25000   0.25000   0.25000   0.25000
     Eigenvalues ---    0.25000   0.25000   0.25000   0.25000   0.25000
     Eigenvalues ---    0.25000   0.25000   0.25000   0.25000   0.25000
     Eigenvalues ---    0.25000   0.25000   0.25080   0.26162   0.35513
     Eigenvalues ---    0.35559   0.35565   0.35735   0.35829   0.35834
     Eigenvalues ---    0.35889   0.37743   0.39600   0.39923   0.40924
     Eigenvalues ---    0.41631   0.41841   0.42631   0.42974   0.44602
     Eigenvalues ---    0.44707   0.45016   0.45545   0.45563   0.45619
     Eigenvalues ---    0.46290   0.46299   0.46450   0.47559   0.48910
     Eigenvalues ---    0.49446   0.50158   0.50488   0.52122   0.52689
     Eigenvalues ---    0.54713   0.56931   0.81203   0.83427   0.83530
     Eigenvalues ---    0.83713   0.84350   0.84351   0.84523
 RFO step:  Lambda=-1.46197439D-07 EMin= 2.30000000D-03
 Linear search not attempted -- first point.
 Iteration  1 RMS(Cart)=  0.00089477 RMS(Int)=  0.00000035
 Iteration  2 RMS(Cart)=  0.00000039 RMS(Int)=  0.00000001
 Variable       Old X    -DE/DX   Delta X   Delta X   Delta X     New X
                                 (Linear)    (Quad)   (Total)
    R1        2.63630   0.00003   0.00000   0.00006   0.00006   2.63636
    R2        2.70113  -0.00003   0.00000  -0.00009  -0.00009   2.70104
    R3        2.63627   0.00003   0.00000   0.00006   0.00006   2.63632
    R4        2.69180   0.00002   0.00000   0.00005   0.00005   2.69186
    R5        2.53455   0.00002   0.00000   0.00003   0.00003   2.53458
    R6        2.67615   0.00002   0.00000   0.00005   0.00005   2.67621
    R7        2.70066   0.00001   0.00000   0.00003   0.00003   2.70069
    R8        2.68680   0.00001   0.00000   0.00003   0.00003   2.68683
    R9        2.66518   0.00001   0.00000   0.00003   0.00003   2.66522
   R10        2.56482  -0.00000   0.00000  -0.00001  -0.00001   2.56482
   R11        2.04256   0.00000   0.00000   0.00000   0.00000   2.04257
   R12        3.42706   0.00000   0.00000   0.00001   0.00001   3.42707
   R13        2.59495   0.00000   0.00000   0.00000   0.00000   2.59495
   R14        2.55388   0.00001   0.00000   0.00002   0.00002   2.55390
   R15        2.58435  -0.00001   0.00000  -0.00003  -0.00003   2.58432
   R16        2.04350  -0.00000   0.00000  -0.00001  -0.00001   2.04349
   R17        2.64887   0.00001   0.00000   0.00003   0.00003   2.64890
   R18        3.40042  -0.00000   0.00000  -0.00000  -0.00000   3.40042
   R19        2.04499  -0.00000   0.00000  -0.00001  -0.00001   2.04498
   R20        2.37273   0.00003   0.00000   0.00004   0.00004   2.37277
   R21        2.65257   0.00001   0.00000   0.00002   0.00002   2.65259
   R22        2.63606   0.00001   0.00000   0.00003   0.00003   2.63609
   R23        2.64409  -0.00002   0.00000  -0.00004  -0.00004   2.64405
   R24        2.60809  -0.00001   0.00000  -0.00001  -0.00001   2.60807
   R25        2.04778   0.00001   0.00000   0.00002   0.00002   2.04779
   R26        2.60136  -0.00002   0.00000  -0.00004  -0.00004   2.60133
   R27        2.04343   0.00002   0.00000   0.00005   0.00005   2.04348
   R28        2.64856  -0.00001   0.00000  -0.00002  -0.00002   2.64854
   R29        2.04768  -0.00000   0.00000  -0.00000  -0.00000   2.04767
   R30        2.65849   0.00000   0.00000   0.00001   0.00001   2.65850
   R31        2.04850   0.00000   0.00000   0.00000   0.00000   2.04850
   R32        2.59706   0.00003   0.00000   0.00006   0.00006   2.59712
   R33        1.90505   0.00001   0.00000   0.00002   0.00002   1.90508
   R34        1.90496   0.00000   0.00000   0.00001   0.00001   1.90497
   R35        1.92318  -0.00008   0.00000  -0.00017  -0.00017   1.92300
   R36        1.83945  -0.00002   0.00000  -0.00004  -0.00004   1.83941
   R37        2.79819   0.00002   0.00000   0.00002   0.00002   2.79821
   R38        2.79264   0.00001   0.00000   0.00001   0.00001   2.79265
   R39        2.79766   0.00000   0.00000   0.00000   0.00000   2.79766
   R40        2.79351   0.00000   0.00000   0.00000   0.00000   2.79351
   R41        2.79673   0.00001   0.00000   0.00001   0.00001   2.79674
   R42        2.79352   0.00000   0.00000   0.00000   0.00000   2.79352
    A1        2.06848   0.00001   0.00000   0.00002   0.00002   2.06850
    A2        2.15565   0.00002   0.00000   0.00009   0.00009   2.15574
    A3        2.05906  -0.00003   0.00000  -0.00011  -0.00011   2.05895
    A4        2.12350  -0.00001   0.00000  -0.00001  -0.00001   2.12349
    A5        2.10288  -0.00000   0.00000  -0.00001  -0.00001   2.10287
    A6        2.05681   0.00001   0.00000   0.00002   0.00002   2.05683
    A7        2.06406  -0.00001   0.00000  -0.00003  -0.00003   2.06403
    A8        2.14711   0.00002   0.00000   0.00006   0.00006   2.14717
    A9        2.07201  -0.00001   0.00000  -0.00003  -0.00003   2.07199
   A10        2.08470   0.00000   0.00000   0.00001   0.00001   2.08471
   A11        2.09424   0.00000   0.00000   0.00002   0.00002   2.09426
   A12        2.10424  -0.00001   0.00000  -0.00003  -0.00003   2.10421
   A13        2.11842  -0.00000   0.00000  -0.00001  -0.00001   2.11841
   A14        2.08016   0.00000   0.00000   0.00002   0.00002   2.08018
   A15        2.08460  -0.00000   0.00000  -0.00001  -0.00001   2.08460
   A16        2.10720   0.00001   0.00000   0.00003   0.00003   2.10723
   A17        2.12740  -0.00004   0.00000  -0.00015  -0.00015   2.12725
   A18        2.04858   0.00003   0.00000   0.00013   0.00013   2.04871
   A19        2.09486  -0.00000   0.00000  -0.00001  -0.00001   2.09485
   A20        2.13813   0.00000   0.00000   0.00000   0.00000   2.13813
   A21        2.05019   0.00000   0.00000   0.00001   0.00001   2.05020
   A22        2.08599  -0.00000   0.00000  -0.00000  -0.00000   2.08599
   A23        2.09557  -0.00000   0.00000  -0.00002  -0.00002   2.09555
   A24        2.10162   0.00000   0.00000   0.00003   0.00003   2.10165
   A25        2.12239  -0.00000   0.00000  -0.00001  -0.00001   2.12238
   A26        2.09729  -0.00000   0.00000  -0.00001  -0.00001   2.09728
   A27        2.06348   0.00000   0.00000   0.00002   0.00002   2.06350
   A28        2.09686   0.00001   0.00000   0.00003   0.00003   2.09690
   A29        2.07347  -0.00001   0.00000  -0.00002  -0.00002   2.07344
   A30        2.11285  -0.00000   0.00000  -0.00001  -0.00001   2.11284
   A31        2.03691   0.00004   0.00000   0.00016   0.00016   2.03707
   A32        2.05389  -0.00004   0.00000  -0.00016  -0.00016   2.05372
   A33        2.03626   0.00001   0.00000   0.00005   0.00005   2.03631
   A34        2.16658  -0.00001   0.00000  -0.00005  -0.00005   2.16653
   A35        2.08034   0.00000   0.00000   0.00000   0.00000   2.08035
   A36        2.10847   0.00000   0.00000   0.00002   0.00002   2.10849
   A37        2.07936  -0.00000   0.00000  -0.00001  -0.00001   2.07935
   A38        2.09535  -0.00000   0.00000  -0.00001  -0.00001   2.09534
   A39        2.09764  -0.00000   0.00000  -0.00002  -0.00002   2.09762
   A40        2.08738   0.00000   0.00000   0.00000   0.00000   2.08738
   A41        2.09817   0.00000   0.00000   0.00002   0.00002   2.09819
   A42        2.10034  -0.00001   0.00000  -0.00004  -0.00004   2.10030
   A43        2.09582   0.00000   0.00000   0.00001   0.00001   2.09583
   A44        2.08703   0.00001   0.00000   0.00003   0.00003   2.08706
   A45        2.11009   0.00001   0.00000   0.00002   0.00002   2.11012
   A46        2.09129  -0.00001   0.00000  -0.00004  -0.00004   2.09125
   A47        2.08180   0.00000   0.00000   0.00002   0.00002   2.08182
   A48        2.06949   0.00000   0.00000   0.00001   0.00001   2.06950
   A49        2.10921   0.00000   0.00000   0.00002   0.00002   2.10922
   A50        2.10381  -0.00001   0.00000  -0.00003  -0.00003   2.10378
   A51        2.05444  -0.00001   0.00000  -0.00011  -0.00011   2.05433
   A52        2.05543  -0.00000   0.00000  -0.00008  -0.00008   2.05535
   A53        1.99285  -0.00000   0.00000  -0.00011  -0.00011   1.99274
   A54        1.86127  -0.00001   0.00000  -0.00008  -0.00008   1.86119
   A55        1.90657   0.00002   0.00000   0.00011   0.00011   1.90668
   A56        1.83915   0.00001   0.00000   0.00005   0.00005   1.83921
   A57        1.84950  -0.00000   0.00000  -0.00002  -0.00002   1.84948
   A58        1.84017  -0.00001   0.00000  -0.00004  -0.00004   1.84013
   A59        1.97584  -0.00001   0.00000  -0.00005  -0.00005   1.97579
   A60        1.96712   0.00000   0.00000   0.00001   0.00001   1.96713
   A61        1.97656   0.00001   0.00000   0.00005   0.00005   1.97661
   A62        1.85616  -0.00003   0.00000  -0.00014  -0.00014   1.85602
   A63        1.82419   0.00001   0.00000   0.00008   0.00008   1.82428
   A64        1.85670  -0.00001   0.00000  -0.00005  -0.00005   1.85666
   A65        1.96179   0.00002   0.00000   0.00011   0.00011   1.96190
   A66        1.98852   0.00000   0.00000  -0.00006  -0.00006   1.98846
   A67        1.96181   0.00000   0.00000   0.00004   0.00004   1.96185
    D1        0.00009   0.00000   0.00000   0.00002   0.00002   0.00011
    D2        3.14133   0.00000   0.00000   0.00007   0.00007   3.14140
    D3       -3.14073  -0.00000   0.00000  -0.00011  -0.00011  -3.14084
    D4        0.00051  -0.00000   0.00000  -0.00007  -0.00007   0.00045
    D5       -0.00156   0.00000   0.00000   0.00016   0.00016  -0.00140
    D6        3.13968   0.00000   0.00000   0.00004   0.00004   3.13973
    D7        3.13930   0.00001   0.00000   0.00029   0.00029   3.13959
    D8       -0.00264   0.00000   0.00000   0.00017   0.00017  -0.00247
    D9        0.00103   0.00000   0.00000   0.00013   0.00013   0.00115
   D10       -3.13979  -0.00000   0.00000  -0.00001  -0.00001  -3.13980
   D11        0.00174  -0.00000   0.00000  -0.00017  -0.00017   0.00157
   D12       -3.14032  -0.00000   0.00000  -0.00023  -0.00023  -3.14056
   D13       -3.13951  -0.00000   0.00000  -0.00021  -0.00021  -3.13973
   D14        0.00161  -0.00001   0.00000  -0.00028  -0.00028   0.00133
   D15       -0.00110  -0.00000   0.00000  -0.00005  -0.00005  -0.00115
   D16        3.14016  -0.00000   0.00000  -0.00001  -0.00001   3.14015
   D17       -0.00214   0.00000   0.00000   0.00014   0.00014  -0.00199
   D18        3.13969   0.00000   0.00000   0.00008   0.00008   3.13977
   D19        3.13990   0.00000   0.00000   0.00020   0.00020   3.14011
   D20       -0.00145   0.00000   0.00000   0.00014   0.00014  -0.00131
   D21       -3.14035   0.00000   0.00000   0.00014   0.00014  -3.14020
   D22        0.00059   0.00000   0.00000   0.00008   0.00008   0.00067
   D23        0.00077   0.00000   0.00000   0.00008   0.00008   0.00085
   D24       -3.14147   0.00000   0.00000   0.00001   0.00001  -3.14146
   D25        0.00074   0.00000   0.00000   0.00003   0.00003   0.00077
   D26       -3.14037  -0.00000   0.00000  -0.00006  -0.00006  -3.14043
   D27       -3.14110   0.00000   0.00000   0.00010   0.00010  -3.14100
   D28        0.00098   0.00000   0.00000   0.00001   0.00001   0.00099
   D29        0.00074  -0.00000   0.00000  -0.00024  -0.00024   0.00050
   D30       -3.13942   0.00000   0.00000   0.00003   0.00003  -3.13938
   D31       -3.14061  -0.00001   0.00000  -0.00030  -0.00030  -3.14092
   D32        0.00241   0.00000   0.00000  -0.00003  -0.00003   0.00238
   D33        0.00115  -0.00000   0.00000  -0.00019  -0.00019   0.00097
   D34       -3.14010  -0.00000   0.00000  -0.00008  -0.00008  -3.14018
   D35       -3.14092  -0.00000   0.00000  -0.00010  -0.00010  -3.14102
   D36        0.00100  -0.00000   0.00000   0.00001   0.00001   0.00102
   D37       -1.06217   0.00001   0.00000   0.00142   0.00142  -1.06075
   D38       -3.14075   0.00000   0.00000   0.00132   0.00132  -3.13943
   D39        1.06357  -0.00001   0.00000   0.00126   0.00126   1.06483
   D40        2.07908   0.00001   0.00000   0.00131   0.00131   2.08039
   D41        0.00050   0.00000   0.00000   0.00121   0.00121   0.00171
   D42       -2.07836  -0.00001   0.00000   0.00114   0.00114  -2.07721
   D43        0.00061  -0.00000   0.00000  -0.00020  -0.00020   0.00041
   D44        3.13940  -0.00000   0.00000  -0.00011  -0.00011   3.13929
   D45       -3.14036  -0.00000   0.00000  -0.00014  -0.00014  -3.14050
   D46       -0.00157  -0.00000   0.00000  -0.00005  -0.00005  -0.00162
   D47       -0.00077  -0.00000   0.00000  -0.00006  -0.00006  -0.00084
   D48        3.14018  -0.00000   0.00000  -0.00012  -0.00012   3.14005
   D49        0.00069   0.00000   0.00000   0.00012   0.00012   0.00080
   D50        3.13455  -0.00000   0.00000  -0.00004  -0.00004   3.13450
   D51        3.14084  -0.00000   0.00000  -0.00016  -0.00016   3.14068
   D52       -0.00849  -0.00001   0.00000  -0.00032  -0.00032  -0.00881
   D53       -0.00138   0.00000   0.00000   0.00010   0.00010  -0.00127
   D54       -3.14010   0.00000   0.00000   0.00001   0.00001  -3.14009
   D55       -3.13538   0.00001   0.00000   0.00026   0.00026  -3.13512
   D56        0.00908   0.00000   0.00000   0.00017   0.00017   0.00925
   D57       -2.04347   0.00000   0.00000  -0.00042  -0.00042  -2.04389
   D58        0.05529  -0.00000   0.00000  -0.00046  -0.00046   0.05483
   D59        2.15539  -0.00000   0.00000  -0.00044  -0.00044   2.15495
   D60        1.09065  -0.00000   0.00000  -0.00058  -0.00058   1.09007
   D61       -3.09377  -0.00001   0.00000  -0.00062  -0.00062  -3.09439
   D62       -0.99368  -0.00000   0.00000  -0.00060  -0.00060  -0.99428
   D63        3.14057   0.00000   0.00000   0.00010   0.00010   3.14067
   D64       -3.13690   0.00000   0.00000   0.00012   0.00012  -3.13678
   D65        0.00222   0.00000   0.00000   0.00021   0.00021   0.00243
   D66        3.13971   0.00000   0.00000   0.00008   0.00008   3.13979
   D67        0.00001   0.00000   0.00000   0.00003   0.00003   0.00003
   D68        0.00046  -0.00000   0.00000  -0.00001  -0.00001   0.00046
   D69       -3.13924  -0.00000   0.00000  -0.00006  -0.00006  -3.13930
   D70       -3.14008  -0.00000   0.00000  -0.00004  -0.00004  -3.14012
   D71        0.00028   0.00000   0.00000   0.00000   0.00000   0.00028
   D72       -0.00102   0.00000   0.00000   0.00005   0.00005  -0.00097
   D73        3.13934   0.00000   0.00000   0.00010   0.00010   3.13944
   D74       -0.00049  -0.00000   0.00000  -0.00004  -0.00004  -0.00053
   D75        3.14137  -0.00000   0.00000  -0.00002  -0.00002   3.14135
   D76        3.13920   0.00000   0.00000   0.00002   0.00002   3.13921
   D77       -0.00212   0.00000   0.00000   0.00003   0.00003  -0.00209
   D78        0.00160  -0.00000   0.00000  -0.00005  -0.00005   0.00156
   D79       -3.14009   0.00000   0.00000   0.00001   0.00001  -3.14008
   D80       -3.13875  -0.00000   0.00000  -0.00010  -0.00010  -3.13884
   D81        0.00275  -0.00000   0.00000  -0.00004  -0.00004   0.00271
   D82        0.00104   0.00000   0.00000   0.00004   0.00004   0.00107
   D83        3.10309  -0.00000   0.00000  -0.00001  -0.00001   3.10308
   D84       -3.14083   0.00000   0.00000   0.00002   0.00002  -3.14080
   D85       -0.03877  -0.00000   0.00000  -0.00002  -0.00002  -0.03879
   D86       -0.00160   0.00000   0.00000   0.00001   0.00001  -0.00159
   D87       -3.10378   0.00000   0.00000   0.00005   0.00005  -3.10373
   D88        3.14009  -0.00000   0.00000  -0.00005  -0.00005   3.14004
   D89        0.03791  -0.00000   0.00000  -0.00001  -0.00001   0.03790
   D90        0.33988   0.00001   0.00000   0.00025   0.00025   0.34013
   D91        2.83710  -0.00001   0.00000  -0.00027  -0.00027   2.83682
   D92       -2.84202   0.00001   0.00000   0.00021   0.00021  -2.84182
   D93       -0.34481  -0.00001   0.00000  -0.00031  -0.00031  -0.34513
         Item               Value     Threshold  Converged?
 Maximum Force            0.000078     0.000450     YES
 RMS     Force            0.000012     0.000300     YES
 Maximum Displacement     0.004225     0.001800     NO 
 RMS     Displacement     0.000895     0.001200     YES
 Predicted change in Energy=-7.309645D-08
 GradGradGradGradGradGradGradGradGradGradGradGradGradGradGradGradGradGrad

                          Input orientation:                          
 ---------------------------------------------------------------------
 Center     Atomic      Atomic             Coordinates (Angstroms)
 Number     Number       Type             X           Y           Z
 ---------------------------------------------------------------------
      1          6           0        0.758546    0.267787    0.002479
      2          6           0       -0.030971   -0.882417    0.003403
      3          6           0       -1.453739   -0.812848    0.001095
      4          6           0       -2.062544    0.465790   -0.004164
      5          6           0       -1.245122    1.629131   -0.004485
      6          6           0        0.109259    1.541129   -0.000741
      7          6           0       -2.290197   -1.971631    0.003203
      8          6           0       -3.468500    0.577213   -0.008816
      9          1           0       -1.714205    2.602913   -0.007411
     10          6           0       -4.234220   -0.555881   -0.007605
     11          6           0       -3.656357   -1.832945   -0.000872
     12          1           0       -3.934615    1.552947   -0.014901
     13          1           0       -4.270792   -2.723750   -0.001358
     14          7           0        2.153435    0.244621    0.003784
     15          7           0        2.699207   -0.886176    0.004602
     16          6           0        4.102121   -0.932856    0.004775
     17          6           0        4.686493   -2.199503   -0.000311
     18          6           0        4.925293    0.198540    0.006909
     19          6           0        6.058960   -2.344753   -0.002688
     20          1           0        4.048079   -3.075118   -0.004131
     21          6           0        6.294678    0.058148    0.005163
     22          1           0        4.479205    1.183602    0.008822
     23          6           0        6.890265   -1.216361   -0.000653
     24          1           0        6.500394   -3.334336   -0.006413
     25          1           0        6.926844    0.938746    0.008254
     26          7           0        8.257564   -1.348408    0.042440
     27          1           0        8.651333   -2.236743   -0.226106
     28          1           0        8.814878   -0.552067   -0.224834
     29          8           0        0.536883   -2.097515    0.006173
     30          8           0       -1.791143   -3.227568    0.008331
     31          1           0       -0.818642   -3.186363    0.009395
     32         16           0       -6.029503   -0.433978   -0.002448
     33          8           0       -6.461786   -1.057475    1.269165
     34          8           0       -6.339212    1.009023   -0.078235
     35          8           0       -6.479197   -1.191518   -1.192266
     36         16           0        1.046010    3.093990    0.000700
     37          8           0        1.850016    3.093585    1.241198
     38          8           0        0.010963    4.151814   -0.000421
     39          8           0        1.853747    3.094696   -1.237375
     40          1           0        1.543550   -1.948685    0.006091
 ---------------------------------------------------------------------
                    Distance matrix (angstroms):
                    1          2          3          4          5
     1  C    0.000000
     2  C    1.395101   0.000000
     3  C    2.462109   1.424469   0.000000
     4  C    2.828038   2.438238   1.416187   0.000000
     5  C    2.422394   2.789641   2.450880   1.421809   0.000000
     6  C    1.429331   2.427604   2.825629   2.423447   1.357242
     7  C    3.782833   2.508084   1.429141   2.448040   3.749364
     8  C    4.238371   3.734604   2.447780   1.410372   2.459667
     9  H    3.401090   3.870519   3.425688   2.165328   1.080879
    10  C    5.060262   4.215928   2.792344   2.400000   3.702566
    11  C    4.889219   3.747925   2.427371   2.797219   4.219009
    12  H    4.865974   4.601062   3.428117   2.164873   2.690592
    13  H    5.851799   4.622402   3.404018   3.879372   5.301156
    14  N    1.395082   2.458017   3.758983   4.221784   3.669758
    15  N    2.257831   2.730182   4.153595   4.949966   4.678096
    16  C    3.552610   4.133401   5.557158   6.321344   5.929323
    17  C    4.638566   4.897878   6.294861   7.256260   7.059923
    18  C    4.167324   5.072774   6.458715   6.992954   6.334093
    19  C    5.909296   6.263045   7.667294   8.594067   8.315129
    20  H    4.689998   4.631053   5.948773   7.062418   7.081521
    21  C    5.540100   6.395194   7.797218   8.367163   7.701731
    22  H    3.831717   4.960862   6.259848   6.581026   5.741654
    23  C    6.308778   6.929290   8.353756   9.109470   8.618664
    24  H    6.778214   6.976442   8.344231   9.368291   9.199403
    25  H    6.204685   7.192208   8.561677   9.001830   8.201087
    26  N    7.671307   8.301716   9.726147  10.478459   9.958362
    27  H    8.283780   8.790295  10.207428  11.051701  10.627037
    28  H    8.101131   8.854958  10.274413  10.927170  10.296105
    29  O    2.375668   1.341242   2.369171   3.650707   4.130804
    30  O    4.326484   2.932229   2.438190   3.703338   4.887313
    31  H    3.797199   2.434878   2.457029   3.858199   4.834363
    32  S    6.824230   6.015273   4.591423   4.067721   5.210252
    33  O    7.449431   6.556537   5.171883   4.826493   6.004467
    34  O    7.136814   6.586206   5.214724   4.311668   5.132224
    35  O    7.479433   6.565423   5.179066   4.864677   6.063203
    36  S    2.840786   4.119673   4.638116   4.070696   2.719397
    37  O    3.272746   4.569337   5.264302   4.874870   3.643656
    38  O    3.955320   5.034407   5.176216   4.229210   2.818101
    39  O    3.275381   4.572649   5.267084   4.875376   3.642923
    40  H    2.351380   1.901592   3.205291   4.339782   4.536251
                    6          7          8          9         10
     6  C    0.000000
     7  C    4.254044   0.000000
     8  C    3.705342   2.808050   0.000000
     9  H    2.110083   4.610676   2.679742   0.000000
    10  C    4.823206   2.404930   1.367564   4.040849   0.000000
    11  C    5.056110   1.373187   2.417481   4.842400   1.401736
    12  H    4.043917   3.889356   1.081369   2.456157   2.130017
    13  H    6.113431   2.118598   3.397070   5.908427   2.168186
    14  N    2.420663   4.965646   5.631778   4.529935   6.437629
    15  N    3.549602   5.106111   6.338951   5.626020   6.941301
    16  C    4.697189   6.476171   7.719767   6.806722   8.344870
    17  C    5.911295   6.980412   8.614763   8.002012   9.070870
    18  C    4.999678   7.534783   8.402345   7.061455   9.190541
    19  C    7.106267   8.357493   9.965461   9.214202  10.447471
    20  H    6.068283   6.433622   8.356943   8.089745   8.656966
    21  C    6.360713   8.821569   9.776976   8.403463  10.546795
    22  H    4.384557   7.468623   7.970824   6.353978   8.885373
    23  C    7.320232   9.211479  10.512897   9.414022  11.144078
    24  H    8.038457   8.895592  10.708831  10.135609  11.088362
    25  H    6.844151   9.665618  10.401643   8.799854  11.260707
    26  N    8.645586  10.566230  11.883232  10.726211  12.516999
    27  H    9.342919  10.947144  12.444112  11.441787  12.996558
    28  H    8.956533  11.197762  12.337071  10.993760  13.050907
    29  O    3.663693   2.829883   4.816377   5.211680   5.014005
    30  O    5.133429   1.351466   4.158146   5.831011   3.620331
    31  H    4.817706   1.908163   4.602888   5.858160   4.311137
    32  S    6.448679   4.043119   2.753413   5.276792   1.799424
    33  O    7.179418   4.454267   3.642142   6.129243   2.616063
    34  O    6.470852   5.028464   2.903837   4.892463   2.623909
    35  O    7.231518   4.425544   3.686904   6.205381   2.616749
    36  S    1.813527   6.065542   5.168661   2.803570   6.418914
    37  O    2.642492   6.658109   6.015087   3.808340   7.203891
    38  O    2.612534   6.541554   4.988437   2.318479   6.339087
    39  O    2.643118   6.661755   6.014432   3.805909   7.204332
    40  H    3.773068   3.833817   5.612577   5.597338   5.943292
                   11         12         13         14         15
    11  C    0.000000
    12  H    3.397336   0.000000
    13  H    1.082157   4.289911   0.000000
    14  N    6.170088   6.227072   7.076859   0.000000
    15  N    6.425699   7.068048   7.208162   1.255615   0.000000
    16  C    7.810517   8.412416   8.562302   2.276803   1.403690
    17  C    8.350899   9.402373   8.972613   3.519963   2.382049
    18  C    8.818827   8.962861   9.649240   2.772243   2.476302
    19  C    9.728789  10.726778  10.336702   4.685939   3.662709
    20  H    7.803931   9.227270   8.326289   3.822356   2.571186
    21  C   10.129134  10.337952  10.925573   4.145439   3.717412
    22  H    8.676809   8.421957   9.582794   2.508170   2.729907
    23  C   10.564631  11.173510  11.262390   4.957020   4.204048
    24  H   10.267122  11.522805  10.788479   5.630727   4.521352
    25  H   10.940133  10.878836  11.781384   4.823615   4.604701
    26  N   11.923849  12.532772  12.603697   6.308694   5.577671
    27  H   12.316372  13.145815  12.933252   6.959360   6.107787
    28  H   12.538841  12.923805  13.266533   6.712809   6.129087
    29  O    4.201584   5.772401   4.848295   2.845847   2.478506
    30  O    2.328966   5.239116   2.530332   5.255075   5.064127
    31  H    3.143958   5.671943   3.483025   4.539265   4.203112
    32  S    2.754801   2.887314   2.887234   8.211030   8.740419
    33  O    3.175654   3.853534   3.031692   8.804469   9.249447
    34  O    3.909025   2.466161   4.268239   8.527373   9.235349
    35  O    3.130379   3.923414   2.939906   8.832631   9.261147
    36  S    6.810796   5.213605   7.881274   3.057009   4.309849
    37  O    7.492235   6.116642   8.535199   3.120874   4.253093
    38  O    7.019015   4.724607   8.099802   4.456047   5.710343
    39  O    7.494787   6.113638   8.537683   3.123014   4.254957
    40  H    5.201200   6.501705   5.865778   2.276523   1.569863
                   16         17         18         19         20
    16  C    0.000000
    17  C    1.394959   0.000000
    18  C    1.399169   2.409915   0.000000
    19  C    2.413033   1.380133   2.784535   0.000000
    20  H    2.142962   1.083646   3.389169   2.139410   0.000000
    21  C    2.406116   2.771872   1.376563   2.414448   3.855470
    22  H    2.149791   3.389462   1.081362   3.865882   4.280506
    23  C    2.802526   2.413127   2.421388   1.401549   3.396029
    24  H    3.393957   2.139654   3.868118   1.083583   2.465978
    25  H    3.388505   3.855886   2.134037   3.396279   4.939488
    26  N    4.176339   3.671340   3.674009   2.414249   4.550105
    27  H    4.738012   3.971439   4.457385   2.604223   4.684239
    28  H    4.733688   4.450620   3.968122   3.295172   5.397858
    29  O    3.750648   4.150869   4.952779   5.527616   3.644765
    30  O    6.324262   6.558717   7.539811   7.899596   5.841226
    31  H    5.412230   5.592898   6.667111   6.928915   4.868011
    32  S   10.143902  10.860463  10.973045  12.238546  10.417931
    33  O   10.640036  11.278295  11.525469  12.650841  10.777265
    34  O   10.620698  11.483331  11.293945  12.843994  11.161609
    35  O   10.651953  11.274282  11.551306  12.647151  10.760258
    36  S    5.055227   6.424499   4.840713   7.396594   6.860783
    37  O    4.776290   6.132188   4.400237   6.988418   6.665975
    38  O    6.526214   7.886685   6.307064   8.876015   8.278095
    39  O    4.776955   6.130524   4.401177   6.985404   6.663527
    40  H    2.752853   3.152942   4.005841   4.532756   2.746202
                   21         22         23         24         25
    21  C    0.000000
    22  H    2.136024   0.000000
    23  C    1.406817   3.401929   0.000000
    24  H    3.398735   4.949464   2.153566   0.000000
    25  H    1.084019   2.459856   2.155436   4.294334   0.000000
    26  N    2.415101   4.548428   1.374336   2.652158   2.646329
    27  H    3.297550   5.400056   2.047771   2.424771   3.621121
    28  H    2.603204   4.676024   2.048336   3.625681   2.416925
    29  O    6.148096   5.129097   6.414199   6.090431   7.074637
    30  O    8.727912   7.666531   8.911335   8.292238   9.662375
    31  H    7.818324   6.867589   7.956649   7.320549   8.775482
    32  S   12.334005  10.632480  12.943436  12.861198  13.028869
    33  O   12.867389  11.239047  13.413239  13.222304  13.595228
    34  O   12.669897  10.820176  13.415566  13.554534  13.266524
    35  O   12.890593  11.276985  13.422484  13.208622  13.627223
    36  S    6.063404   3.928929   7.261849   8.430524   6.263334
    37  O    5.522380   3.475546   6.746996   8.031234   5.651342
    38  O    7.499546   5.364285   8.725944   9.907329   7.625830
    39  O    5.521448   3.478264   6.743976   8.027393   5.651197
    40  H    5.157577   4.292936   5.396639   5.146891   6.108774
                   26         27         28         29         30
    26  N    0.000000
    27  H    1.008122   0.000000
    28  H    1.008065   1.692597   0.000000
    29  O    7.757022   8.118968   8.424191   0.000000
    30  O   10.222961  10.491998  10.940767   2.587804   0.000000
    31  H    9.260491   9.520382   9.989950   1.738692   0.973374
    32  S   14.316371  14.792800  14.846517   6.773836   5.076214
    33  O   14.773245  15.232626  15.357863   7.187364   5.302255
    34  O   14.786409  15.338621  15.234991   7.545752   6.216199
    35  O   14.789227  15.197332  15.337978   7.175128   5.250217
    36  S    8.470133   9.290269   8.584865   5.216413   6.929040
    37  O    7.888282   8.764890   7.996833   5.495191   7.398310
    38  O    9.912653  10.748050   9.984276   6.271423   7.596245
    39  O    7.898606   8.697936   7.923476   5.499054   7.403245
    40  H    6.740893   7.117407   7.407840   1.017609   3.571516
                   31         32         33         34         35
    31  H    0.000000
    32  S    5.893117   0.000000
    33  O    6.161515   1.480748   0.000000
    34  O    6.934380   1.477808   2.470004   0.000000
    35  O    6.120889   1.480459   2.465139   2.470434   0.000000
    36  S    6.551323   7.906292   8.672408   7.674296   8.741710
    37  O    6.933746   8.722223   9.290756   8.552763   9.677791
    38  O    7.384929   7.583978   8.405059   7.085754   8.490811
    39  O    6.938862   8.724805   9.626597   8.533359   9.370786
    40  H    2.666798   7.723052   8.153221   8.419803   8.147014
                   36         37         38         39         40
    36  S    0.000000
    37  O    1.478263   0.000000
    38  O    1.479971   2.458369   0.000000
    39  O    1.478266   2.478576   2.458334   0.000000
    40  H    5.067163   5.200375   6.290067   5.203665   0.000000
 Stoichiometry    C16H11N3O8S2(2-)
 Framework group  C1[X(C16H11N3O8S2)]
 Deg. of freedom   114
 Full point group                 C1      NOp   1
 Largest Abelian subgroup         C1      NOp   1
 Largest concise Abelian subgroup C1      NOp   1
                         Standard orientation:                         
 ---------------------------------------------------------------------
 Center     Atomic      Atomic             Coordinates (Angstroms)
 Number     Number       Type             X           Y           Z
 ---------------------------------------------------------------------
      1          6           0        0.758513    0.267861    0.002533
      2          6           0       -0.031006   -0.882342    0.003457
      3          6           0       -1.453774   -0.812771    0.001149
      4          6           0       -2.062577    0.465868   -0.004110
      5          6           0       -1.245154    1.629207   -0.004431
      6          6           0        0.109227    1.541204   -0.000687
      7          6           0       -2.290233   -1.971553    0.003257
      8          6           0       -3.468533    0.577292   -0.008762
      9          1           0       -1.714235    2.602991   -0.007357
     10          6           0       -4.234255   -0.555801   -0.007551
     11          6           0       -3.656393   -1.832866   -0.000818
     12          1           0       -3.934647    1.553027   -0.014848
     13          1           0       -4.270828   -2.723670   -0.001305
     14          7           0        2.153402    0.244693    0.003838
     15          7           0        2.699173   -0.886104    0.004656
     16          6           0        4.102087   -0.932786    0.004829
     17          6           0        4.686457   -2.199433   -0.000257
     18          6           0        4.925260    0.198610    0.006963
     19          6           0        6.058924   -2.344685   -0.002634
     20          1           0        4.048042   -3.075047   -0.004077
     21          6           0        6.294644    0.058216    0.005217
     22          1           0        4.479173    1.183672    0.008876
     23          6           0        6.890230   -1.216294   -0.000599
     24          1           0        6.500357   -3.334268   -0.006359
     25          1           0        6.926812    0.938813    0.008307
     26          7           0        8.257529   -1.348342    0.042494
     27          1           0        8.651297   -2.236678   -0.226052
     28          1           0        8.814844   -0.552001   -0.224780
     29          8           0        0.536847   -2.097441    0.006227
     30          8           0       -1.791181   -3.227491    0.008385
     31          1           0       -0.818679   -3.186287    0.009449
     32         16           0       -6.029537   -0.433897   -0.002394
     33          8           0       -6.461821   -1.057392    1.269218
     34          8           0       -6.339244    1.009105   -0.078181
     35          8           0       -6.479232   -1.191436   -1.192212
     36         16           0        1.045980    3.094064    0.000754
     37          8           0        1.849986    3.093658    1.241251
     38          8           0        0.010934    4.151889   -0.000367
     39          8           0        1.853717    3.094769   -1.237322
     40          1           0        1.543514   -1.948612    0.006145
 ---------------------------------------------------------------------
 Rotational constants (GHZ):           0.2955154           0.0646949           0.0541893
 Standard basis: 6-311++G(d,p) (5D, 7F)
 There are   760 symmetry adapted cartesian basis functions of A   symmetry.
 There are   731 symmetry adapted basis functions of A   symmetry.
   731 basis functions,  1171 primitive gaussians,   760 cartesian basis functions
   113 alpha electrons      113 beta electrons
       nuclear repulsion energy      3041.9997855073 Hartrees.
 NAtoms=   40 NActive=   40 NUniq=   40 SFac= 1.00D+00 NAtFMM=   60 NAOKFM=F Big=F
 Integral buffers will be    131072 words long.
 Raffenetti 2 integral format.
 Two-electron integral symmetry is turned on.
 ------------------------------------------------------------------------------
 Polarizable Continuum Model (PCM)
 =================================
 Model                : PCM.
 Atomic radii         : UFF (Universal Force Field).
 Polarization charges : Total charges.
 Charge compensation  : None.
 Solution method      : On-the-fly selection.
 Cavity type          : Scaled VdW (van der Waals Surface) (Alpha=1.100).
 Cavity algorithm     : GePol (No added spheres)
                        Default sphere list used, NSphG=   40.
                        Lebedev-Laikov grids with approx.  5.0 points / Ang**2.
                        Smoothing algorithm: York/Karplus (Gamma=1.0000).
                        Polarization charges: spherical gaussians, with
                                              point-specific exponents (IZeta= 3).
                        Self-potential: point-specific (ISelfS= 7).
                        Self-field    : sphere-specific E.n sum rule (ISelfD= 2).
 1st derivatives      : Analytical E(r).r(x)/FMM algorithm (CHGder, D1EAlg=3).
                        Cavity 1st derivative terms included.
 Solvent              : Water, Eps=  78.355300 Eps(inf)=   1.777849
 ------------------------------------------------------------------------------
 One-electron integrals computed using PRISM.
 PrsmSu:  requested number of processors reduced to:  23 ShMem   1 Linda.
 NBasis=   731 RedAO= T EigKep=  1.27D-06  NBF=   731
 NBsUse=   721 1.00D-06 EigRej=  9.00D-07 NBFU=   721
 Initial guess from the checkpoint file:  "AV3_OH.chk"
 B after Tr=     0.000000   -0.000000   -0.000000
         Rot=    1.000000    0.000024   -0.000017    0.000028 Ang=   0.00 deg.
 Requested convergence on RMS density matrix=1.00D-08 within 128 cycles.
 Requested convergence on MAX density matrix=1.00D-06.
 Requested convergence on             energy=1.00D-06.
 No special actions if energy rises.
 CoulSu:  requested number of processors reduced to:  32 ShMem   1 Linda.
 Inv3:  Mode=1 IEnd=    36352083.
 Iteration    1 A*A^-1 deviation from unit magnitude is 3.77D-15 for   1889.
 Iteration    1 A*A^-1 deviation from orthogonality  is 1.83D-15 for   2892   2615.
 Iteration    1 A^-1*A deviation from unit magnitude is 3.33D-15 for   1889.
 Iteration    1 A^-1*A deviation from orthogonality  is 2.44D-15 for   3364   1269.
 CoulSu:  requested number of processors reduced to:  32 ShMem   1 Linda.
 CoulSu:  requested number of processors reduced to:  32 ShMem   1 Linda.
 Error on total polarization charges =  0.02665
 SCF Done:  E(RCAM-B3LYP) =  -2178.82689760     A.U. after    9 cycles
            NFock=  9  Conv=0.59D-08     -V/T= 2.0023
 PrsmSu:  requested number of processors reduced to:  25 ShMem   1 Linda.
 D1PCM: PCM CHGder 1st derivatives, ID1Alg=3 FixD1E=F DoIter=F DoCFld=F I1PDM=0.
 CoulSu:  requested number of processors reduced to:  34 ShMem   1 Linda.
 CoulSu:  requested number of processors reduced to:  34 ShMem   1 Linda.
 CoulSu:  requested number of processors reduced to:  25 ShMem   1 Linda.
 CoulSu:  requested number of processors reduced to:  26 ShMem   1 Linda.
 Calling FoFJK, ICntrl=      2127 FMM=F ISym2X=0 I1Cent= 0 IOpClX= 0 NMat=1 NMatS=1 NMatT=0.
 ***** Axes restored to original set *****
 -------------------------------------------------------------------
 Center     Atomic                   Forces (Hartrees/Bohr)
 Number     Number              X              Y              Z
 -------------------------------------------------------------------
      1        6          -0.000004285   -0.000006374   -0.000001011
      2        6          -0.000012211    0.000026825    0.000001446
      3        6           0.000009930   -0.000003787    0.000002563
      4        6           0.000008977    0.000003854   -0.000002491
      5        6          -0.000003574   -0.000003433   -0.000008121
      6        6          -0.000006905    0.000000411    0.000008363
      7        6          -0.000011228    0.000006902   -0.000005319
      8        6          -0.000008793   -0.000005044   -0.000004002
      9        1          -0.000001661    0.000001913    0.000001675
     10        6          -0.000000267    0.000007296    0.000003509
     11        6           0.000011223   -0.000005424    0.000002279
     12        1           0.000001282   -0.000000214    0.000000446
     13        1          -0.000000157   -0.000001181   -0.000000746
     14        7           0.000014659    0.000005372   -0.000019678
     15        7          -0.000063173   -0.000008317    0.000010889
     16        6           0.000010427   -0.000004497   -0.000004146
     17        6          -0.000004011    0.000003361    0.000002459
     18        6          -0.000000227    0.000003573   -0.000001180
     19        6           0.000007384    0.000004188    0.000000680
     20        1          -0.000001784    0.000001424    0.000000981
     21        6           0.000006374   -0.000005899    0.000001962
     22        1           0.000008263   -0.000009790   -0.000006783
     23        6          -0.000027928    0.000002234   -0.000009571
     24        1          -0.000000095    0.000000728    0.000001341
     25        1           0.000000218    0.000000484    0.000000172
     26        7           0.000019864    0.000000725    0.000029727
     27        1           0.000001686   -0.000001045   -0.000008709
     28        1           0.000002221    0.000000601   -0.000010240
     29        8           0.000096643    0.000012403    0.000002784
     30        8           0.000020439    0.000000834    0.000003759
     31        1          -0.000013422   -0.000000812    0.000000322
     32       16           0.000001565    0.000001693   -0.000002018
     33        8           0.000000773   -0.000001557    0.000000376
     34        8          -0.000000006    0.000000799   -0.000000902
     35        8          -0.000001190   -0.000003023   -0.000001364
     36       16           0.000016313   -0.000015053    0.000038773
     37        8          -0.000022465    0.000032414   -0.000002292
     38        8           0.000002255   -0.000006089   -0.000011275
     39        8          -0.000000934   -0.000003522   -0.000014633
     40        1          -0.000056180   -0.000032972   -0.000000026
 -------------------------------------------------------------------
 Cartesian Forces:  Max     0.000096643 RMS     0.000015269

 GradGradGradGradGradGradGradGradGradGradGradGradGradGradGradGradGradGrad
 Berny optimization.
 Using GEDIIS/GDIIS optimizer.
 FormGI is forming the generalized inverse of G from B-inverse, IUseBI=4.
 Internal  Forces:  Max     0.000178349 RMS     0.000020698
 Search for a local minimum.
 Step number   2 out of a maximum of  212
 All quantities printed in internal units (Hartrees-Bohrs-Radians)
 Mixed Optimization -- En-DIIS/RFO-DIIS
 Swapping is turned off.
 Update second derivatives using D2CorX and points    1    2
 DE=  5.40D-08 DEPred=-7.31D-08 R=-7.39D-01
 Trust test=-7.39D-01 RLast= 3.64D-03 DXMaxT set to 1.50D-01
 ITU= -1  0
     Eigenvalues ---    0.00343   0.00399   0.01390   0.01497   0.01657
     Eigenvalues ---    0.01660   0.01764   0.01806   0.01849   0.01905
     Eigenvalues ---    0.02009   0.02029   0.02033   0.02043   0.02062
     Eigenvalues ---    0.02077   0.02085   0.02134   0.02159   0.02175
     Eigenvalues ---    0.02179   0.02200   0.02224   0.02231   0.02239
     Eigenvalues ---    0.02273   0.02295   0.02303   0.02332   0.02345
     Eigenvalues ---    0.02469   0.03155   0.03456   0.12225   0.12437
     Eigenvalues ---    0.12560   0.12593   0.15689   0.16000   0.16000
     Eigenvalues ---    0.16000   0.16000   0.16000   0.16000   0.16000
     Eigenvalues ---    0.16000   0.16000   0.16231   0.21609   0.22784
     Eigenvalues ---    0.23055   0.23326   0.23569   0.23764   0.23998
     Eigenvalues ---    0.24979   0.24999   0.25000   0.25000   0.25000
     Eigenvalues ---    0.25000   0.25000   0.25000   0.25000   0.25000
     Eigenvalues ---    0.25000   0.25000   0.25000   0.25000   0.25000
     Eigenvalues ---    0.25000   0.25079   0.26162   0.35140   0.35513
     Eigenvalues ---    0.35564   0.35594   0.35737   0.35828   0.35884
     Eigenvalues ---    0.36535   0.39224   0.39704   0.40030   0.40826
     Eigenvalues ---    0.41618   0.41804   0.42592   0.42943   0.44018
     Eigenvalues ---    0.44618   0.45038   0.45543   0.45615   0.46174
     Eigenvalues ---    0.46276   0.46298   0.47550   0.48863   0.49332
     Eigenvalues ---    0.49741   0.50464   0.52115   0.52510   0.54673
     Eigenvalues ---    0.55409   0.61704   0.81062   0.83345   0.83531
     Eigenvalues ---    0.83746   0.84349   0.84505   0.84584
 En-DIIS/RFO-DIIS/Sim-DIIS IScMMF=       -3 using points:     2    1
 RFO step:  Lambda=-2.53748791D-07.
 DidBck=T Rises=F RFO-DIIS coefs:    0.25484    0.74516
 Iteration  1 RMS(Cart)=  0.00093882 RMS(Int)=  0.00000050
 Iteration  2 RMS(Cart)=  0.00000056 RMS(Int)=  0.00000000
 Variable       Old X    -DE/DX   Delta X   Delta X   Delta X     New X
                                 (Linear)    (Quad)   (Total)
    R1        2.63636  -0.00003  -0.00004   0.00006   0.00002   2.63638
    R2        2.70104   0.00002   0.00006  -0.00012  -0.00005   2.70099
    R3        2.63632  -0.00003  -0.00004   0.00007   0.00002   2.63635
    R4        2.69186  -0.00002  -0.00004   0.00006   0.00002   2.69188
    R5        2.53458   0.00004  -0.00002   0.00007   0.00005   2.53463
    R6        2.67621  -0.00000  -0.00004   0.00007   0.00004   2.67624
    R7        2.70069  -0.00001  -0.00002   0.00004   0.00001   2.70070
    R8        2.68683  -0.00000  -0.00002   0.00005   0.00002   2.68685
    R9        2.66522   0.00001  -0.00003   0.00006   0.00003   2.66525
   R10        2.56482   0.00001   0.00000  -0.00000   0.00000   2.56482
   R11        2.04257   0.00000  -0.00000   0.00001   0.00001   2.04257
   R12        3.42707   0.00000  -0.00001   0.00002   0.00001   3.42708
   R13        2.59495  -0.00001  -0.00000  -0.00000  -0.00001   2.59494
   R14        2.55390   0.00000  -0.00002   0.00003   0.00002   2.55392
   R15        2.58432  -0.00000   0.00002  -0.00004  -0.00002   2.58430
   R16        2.04349  -0.00000   0.00000  -0.00001  -0.00001   2.04349
   R17        2.64890   0.00001  -0.00002   0.00005   0.00003   2.64893
   R18        3.40042  -0.00000   0.00000  -0.00001  -0.00000   3.40041
   R19        2.04498   0.00000   0.00001  -0.00001  -0.00001   2.04497
   R20        2.37277  -0.00000  -0.00003   0.00005   0.00003   2.37280
   R21        2.65259   0.00002  -0.00002   0.00005   0.00004   2.65263
   R22        2.63609  -0.00000  -0.00002   0.00004   0.00002   2.63611
   R23        2.64405   0.00000   0.00003  -0.00006  -0.00003   2.64401
   R24        2.60807   0.00000   0.00001  -0.00002  -0.00001   2.60807
   R25        2.04779   0.00000  -0.00001   0.00003   0.00001   2.04781
   R26        2.60133   0.00001   0.00003  -0.00005  -0.00002   2.60130
   R27        2.04348  -0.00001  -0.00004   0.00007   0.00003   2.04351
   R28        2.64854  -0.00001   0.00001  -0.00003  -0.00002   2.64852
   R29        2.04767  -0.00000   0.00000  -0.00000  -0.00000   2.04767
   R30        2.65850  -0.00001  -0.00001   0.00001   0.00000   2.65850
   R31        2.04850   0.00000  -0.00000   0.00000   0.00000   2.04850
   R32        2.59712   0.00002  -0.00004   0.00011   0.00007   2.59718
   R33        1.90508   0.00000  -0.00002   0.00004   0.00002   1.90510
   R34        1.90497   0.00000  -0.00001   0.00002   0.00001   1.90498
   R35        1.92300  -0.00006   0.00013  -0.00033  -0.00020   1.92281
   R36        1.83941  -0.00001   0.00003  -0.00008  -0.00004   1.83937
   R37        2.79821   0.00000  -0.00001   0.00003   0.00002   2.79822
   R38        2.79265   0.00000  -0.00001   0.00001   0.00001   2.79266
   R39        2.79766   0.00000  -0.00000   0.00001   0.00000   2.79767
   R40        2.79351  -0.00001  -0.00000  -0.00000  -0.00001   2.79351
   R41        2.79674  -0.00001  -0.00001   0.00001   0.00000   2.79674
   R42        2.79352   0.00001  -0.00000   0.00001   0.00001   2.79352
    A1        2.06850   0.00001  -0.00001   0.00004   0.00003   2.06853
    A2        2.15574  -0.00011  -0.00007  -0.00003  -0.00010   2.15564
    A3        2.05895   0.00010   0.00008  -0.00001   0.00007   2.05901
    A4        2.12349   0.00001   0.00001  -0.00001  -0.00000   2.12348
    A5        2.10287  -0.00002   0.00001  -0.00003  -0.00003   2.10284
    A6        2.05683   0.00001  -0.00001   0.00005   0.00003   2.05686
    A7        2.06403  -0.00000   0.00002  -0.00005  -0.00003   2.06400
    A8        2.14717  -0.00000  -0.00005   0.00009   0.00005   2.14721
    A9        2.07199   0.00001   0.00002  -0.00004  -0.00002   2.07197
   A10        2.08471  -0.00000  -0.00001   0.00002   0.00001   2.08472
   A11        2.09426  -0.00000  -0.00002   0.00003   0.00001   2.09427
   A12        2.10421   0.00000   0.00002  -0.00004  -0.00002   2.10419
   A13        2.11841   0.00000   0.00001  -0.00001  -0.00000   2.11841
   A14        2.08018  -0.00000  -0.00001   0.00002   0.00001   2.08019
   A15        2.08460  -0.00000   0.00001  -0.00002  -0.00001   2.08459
   A16        2.10723  -0.00002  -0.00002   0.00002  -0.00000   2.10722
   A17        2.12725   0.00005   0.00012  -0.00017  -0.00005   2.12719
   A18        2.04871  -0.00003  -0.00010   0.00015   0.00006   2.04877
   A19        2.09485   0.00000   0.00001  -0.00001  -0.00001   2.09485
   A20        2.13813  -0.00001  -0.00000  -0.00001  -0.00001   2.13812
   A21        2.05020   0.00001  -0.00001   0.00003   0.00002   2.05021
   A22        2.08599  -0.00000   0.00000  -0.00001  -0.00000   2.08599
   A23        2.09555  -0.00000   0.00002  -0.00004  -0.00002   2.09552
   A24        2.10165   0.00000  -0.00002   0.00004   0.00003   2.10167
   A25        2.12238  -0.00000   0.00001  -0.00002  -0.00001   2.12237
   A26        2.09728   0.00000   0.00000  -0.00001  -0.00000   2.09728
   A27        2.06350  -0.00000  -0.00001   0.00002   0.00001   2.06351
   A28        2.09690  -0.00000  -0.00002   0.00005   0.00002   2.09692
   A29        2.07344   0.00000   0.00002  -0.00004  -0.00002   2.07342
   A30        2.11284   0.00000   0.00001  -0.00001  -0.00000   2.11284
   A31        2.03707  -0.00018  -0.00012  -0.00004  -0.00015   2.03691
   A32        2.05372   0.00007   0.00012  -0.00014  -0.00002   2.05371
   A33        2.03631  -0.00002  -0.00004   0.00004   0.00000   2.03631
   A34        2.16653   0.00003   0.00004  -0.00003   0.00001   2.16653
   A35        2.08035  -0.00001  -0.00000  -0.00001  -0.00001   2.08034
   A36        2.10849   0.00001  -0.00002   0.00004   0.00003   2.10852
   A37        2.07935  -0.00001   0.00001  -0.00003  -0.00002   2.07933
   A38        2.09534  -0.00000   0.00001  -0.00002  -0.00001   2.09533
   A39        2.09762   0.00000   0.00001  -0.00003  -0.00001   2.09761
   A40        2.08738   0.00000  -0.00000   0.00001   0.00001   2.08739
   A41        2.09819  -0.00000  -0.00001   0.00002   0.00000   2.09819
   A42        2.10030   0.00000   0.00003  -0.00006  -0.00003   2.10027
   A43        2.09583  -0.00000  -0.00001   0.00001   0.00001   2.09583
   A44        2.08706  -0.00000  -0.00002   0.00005   0.00002   2.08708
   A45        2.11012   0.00000  -0.00002   0.00004   0.00002   2.11014
   A46        2.09125  -0.00000   0.00003  -0.00007  -0.00003   2.09122
   A47        2.08182  -0.00000  -0.00001   0.00003   0.00001   2.08183
   A48        2.06950  -0.00000  -0.00001   0.00001   0.00000   2.06950
   A49        2.10922   0.00000  -0.00001   0.00003   0.00002   2.10924
   A50        2.10378  -0.00000   0.00002  -0.00004  -0.00002   2.10376
   A51        2.05433  -0.00000   0.00008  -0.00020  -0.00012   2.05420
   A52        2.05535  -0.00000   0.00006  -0.00016  -0.00010   2.05525
   A53        1.99274  -0.00000   0.00009  -0.00022  -0.00013   1.99261
   A54        1.86119   0.00005   0.00006  -0.00000   0.00005   1.86124
   A55        1.90668   0.00000  -0.00008   0.00017   0.00009   1.90677
   A56        1.83921  -0.00000  -0.00004   0.00008   0.00004   1.83925
   A57        1.84948  -0.00000   0.00002  -0.00003  -0.00002   1.84947
   A58        1.84013   0.00000   0.00003  -0.00006  -0.00003   1.84009
   A59        1.97579   0.00000   0.00004  -0.00007  -0.00004   1.97575
   A60        1.96713  -0.00000  -0.00001   0.00001   0.00001   1.96714
   A61        1.97661   0.00000  -0.00003   0.00008   0.00004   1.97665
   A62        1.85602   0.00005   0.00011  -0.00013  -0.00002   1.85599
   A63        1.82428  -0.00002  -0.00006   0.00009   0.00002   1.82430
   A64        1.85666  -0.00002   0.00003  -0.00009  -0.00006   1.85660
   A65        1.96190  -0.00002  -0.00008   0.00013   0.00005   1.96195
   A66        1.98846   0.00001   0.00004  -0.00004   0.00000   1.98847
   A67        1.96185  -0.00000  -0.00003   0.00003  -0.00000   1.96185
    D1        0.00011   0.00000  -0.00002   0.00013   0.00011   0.00022
    D2        3.14140  -0.00000  -0.00005   0.00008   0.00003   3.14142
    D3       -3.14084   0.00002   0.00008   0.00022   0.00030  -3.14054
    D4        0.00045   0.00001   0.00005   0.00017   0.00022   0.00066
    D5       -0.00140  -0.00001  -0.00012   0.00008  -0.00004  -0.00144
    D6        3.13973  -0.00000  -0.00003   0.00006   0.00003   3.13976
    D7        3.13959  -0.00002  -0.00021  -0.00000  -0.00022   3.13937
    D8       -0.00247  -0.00001  -0.00013  -0.00002  -0.00015  -0.00262
    D9        0.00115  -0.00002  -0.00009  -0.00017  -0.00026   0.00089
   D10       -3.13980  -0.00000   0.00001  -0.00008  -0.00008  -3.13987
   D11        0.00157  -0.00000   0.00013  -0.00025  -0.00012   0.00144
   D12       -3.14056  -0.00000   0.00017  -0.00045  -0.00027  -3.14083
   D13       -3.13973   0.00001   0.00016  -0.00020  -0.00004  -3.13977
   D14        0.00133   0.00000   0.00021  -0.00040  -0.00019   0.00114
   D15       -0.00115   0.00000   0.00004  -0.00003   0.00001  -0.00114
   D16        3.14015  -0.00000   0.00000  -0.00008  -0.00008   3.14007
   D17       -0.00199  -0.00000  -0.00011   0.00016   0.00006  -0.00194
   D18        3.13977  -0.00000  -0.00006   0.00006   0.00000   3.13977
   D19        3.14011   0.00000  -0.00015   0.00035   0.00020   3.14031
   D20       -0.00131   0.00000  -0.00010   0.00025   0.00015  -0.00116
   D21       -3.14020   0.00000  -0.00011   0.00029   0.00019  -3.14002
   D22        0.00067   0.00000  -0.00006   0.00020   0.00014   0.00081
   D23        0.00085  -0.00000  -0.00006   0.00009   0.00004   0.00089
   D24       -3.14146  -0.00000  -0.00001  -0.00000  -0.00001  -3.14147
   D25        0.00077  -0.00000  -0.00002   0.00004   0.00001   0.00078
   D26       -3.14043   0.00000   0.00004  -0.00004   0.00000  -3.14043
   D27       -3.14100  -0.00000  -0.00007   0.00014   0.00007  -3.14093
   D28        0.00099   0.00000  -0.00001   0.00006   0.00005   0.00104
   D29        0.00050  -0.00000   0.00018  -0.00039  -0.00021   0.00029
   D30       -3.13938  -0.00000  -0.00003   0.00004   0.00001  -3.13937
   D31       -3.14092  -0.00000   0.00023  -0.00049  -0.00027  -3.14118
   D32        0.00238  -0.00000   0.00002  -0.00006  -0.00004   0.00234
   D33        0.00097   0.00001   0.00014  -0.00017  -0.00003   0.00094
   D34       -3.14018  -0.00000   0.00006  -0.00015  -0.00009  -3.14027
   D35       -3.14102   0.00000   0.00007  -0.00008  -0.00001  -3.14103
   D36        0.00102  -0.00000  -0.00001  -0.00007  -0.00008   0.00094
   D37       -1.06075  -0.00003  -0.00106  -0.00054  -0.00160  -1.06235
   D38       -3.13943  -0.00002  -0.00098  -0.00067  -0.00165  -3.14108
   D39        1.06483  -0.00000  -0.00094  -0.00070  -0.00163   1.06320
   D40        2.08039  -0.00003  -0.00097  -0.00056  -0.00153   2.07886
   D41        0.00171  -0.00002  -0.00090  -0.00068  -0.00158   0.00012
   D42       -2.07721   0.00000  -0.00085  -0.00071  -0.00157  -2.07878
   D43        0.00041   0.00000   0.00015  -0.00030  -0.00016   0.00026
   D44        3.13929  -0.00000   0.00008  -0.00018  -0.00010   3.13919
   D45       -3.14050   0.00000   0.00010  -0.00021  -0.00011  -3.14060
   D46       -0.00162  -0.00000   0.00003  -0.00009  -0.00005  -0.00167
   D47       -0.00084  -0.00000   0.00005  -0.00011  -0.00007  -0.00090
   D48        3.14005  -0.00000   0.00009  -0.00021  -0.00011   3.13994
   D49        0.00080   0.00000  -0.00009   0.00018   0.00010   0.00090
   D50        3.13450   0.00000   0.00003  -0.00004  -0.00001   3.13449
   D51        3.14068   0.00000   0.00012  -0.00025  -0.00013   3.14055
   D52       -0.00881   0.00000   0.00024  -0.00047  -0.00024  -0.00904
   D53       -0.00127   0.00000  -0.00008   0.00017   0.00009  -0.00118
   D54       -3.14009   0.00000  -0.00001   0.00004   0.00003  -3.14006
   D55       -3.13512  -0.00000  -0.00020   0.00039   0.00019  -3.13492
   D56        0.00925   0.00000  -0.00013   0.00026   0.00014   0.00939
   D57       -2.04389  -0.00000   0.00032  -0.00070  -0.00039  -2.04428
   D58        0.05483  -0.00000   0.00035  -0.00077  -0.00042   0.05441
   D59        2.15495   0.00000   0.00033  -0.00072  -0.00040   2.15455
   D60        1.09007  -0.00000   0.00043  -0.00092  -0.00049   1.08958
   D61       -3.09439  -0.00000   0.00046  -0.00099  -0.00052  -3.09492
   D62       -0.99428   0.00000   0.00045  -0.00094  -0.00050  -0.99477
   D63        3.14067  -0.00004  -0.00008  -0.00034  -0.00041   3.14026
   D64       -3.13678  -0.00001  -0.00009  -0.00005  -0.00014  -3.13692
   D65        0.00243  -0.00001  -0.00016   0.00005  -0.00011   0.00232
   D66        3.13979  -0.00000  -0.00006   0.00011   0.00005   3.13984
   D67        0.00003  -0.00000  -0.00002   0.00003   0.00001   0.00004
   D68        0.00046   0.00000   0.00000   0.00002   0.00002   0.00048
   D69       -3.13930   0.00000   0.00004  -0.00006  -0.00002  -3.13932
   D70       -3.14012   0.00000   0.00003  -0.00006  -0.00003  -3.14015
   D71        0.00028  -0.00000  -0.00000  -0.00002  -0.00002   0.00026
   D72       -0.00097  -0.00000  -0.00004   0.00004   0.00000  -0.00096
   D73        3.13944  -0.00000  -0.00007   0.00008   0.00001   3.13944
   D74       -0.00053  -0.00000   0.00003  -0.00006  -0.00003  -0.00056
   D75        3.14135  -0.00000   0.00002  -0.00004  -0.00002   3.14133
   D76        3.13921  -0.00000  -0.00001   0.00002   0.00001   3.13922
   D77       -0.00209  -0.00000  -0.00002   0.00004   0.00002  -0.00207
   D78        0.00156   0.00000   0.00004  -0.00005  -0.00002   0.00154
   D79       -3.14008   0.00000  -0.00001   0.00002   0.00001  -3.14007
   D80       -3.13884   0.00000   0.00007  -0.00009  -0.00002  -3.13886
   D81        0.00271   0.00000   0.00003  -0.00002   0.00001   0.00271
   D82        0.00107  -0.00000  -0.00003   0.00005   0.00002   0.00109
   D83        3.10308  -0.00000   0.00001  -0.00002  -0.00002   3.10307
   D84       -3.14080  -0.00000  -0.00002   0.00002   0.00001  -3.14080
   D85       -0.03879  -0.00000   0.00002  -0.00005  -0.00003  -0.03882
   D86       -0.00159  -0.00000  -0.00000   0.00001   0.00001  -0.00159
   D87       -3.10373   0.00000  -0.00004   0.00008   0.00004  -3.10369
   D88        3.14004   0.00000   0.00004  -0.00006  -0.00002   3.14002
   D89        0.03790   0.00000   0.00001   0.00001   0.00001   0.03792
   D90        0.34013   0.00001  -0.00019   0.00047   0.00028   0.34042
   D91        2.83682  -0.00001   0.00020  -0.00052  -0.00031   2.83651
   D92       -2.84182   0.00001  -0.00015   0.00040   0.00024  -2.84157
   D93       -0.34513  -0.00001   0.00023  -0.00059  -0.00035  -0.34548
         Item               Value     Threshold  Converged?
 Maximum Force            0.000178     0.000450     YES
 RMS     Force            0.000021     0.000300     YES
 Maximum Displacement     0.003695     0.001800     NO 
 RMS     Displacement     0.000939     0.001200     YES
 Predicted change in Energy=-1.268736D-07
 GradGradGradGradGradGradGradGradGradGradGradGradGradGradGradGradGradGrad

                          Input orientation:                          
 ---------------------------------------------------------------------
 Center     Atomic      Atomic             Coordinates (Angstroms)
 Number     Number       Type             X           Y           Z
 ---------------------------------------------------------------------
      1          6           0        0.758574    0.268125    0.003254
      2          6           0       -0.030809   -0.882181    0.004134
      3          6           0       -1.453597   -0.812781    0.001520
      4          6           0       -2.062523    0.465820   -0.003849
      5          6           0       -1.245208    1.629252   -0.004044
      6          6           0        0.109182    1.541383   -0.000094
      7          6           0       -2.289975   -1.971632    0.003246
      8          6           0       -3.468504    0.577134   -0.008798
      9          1           0       -1.714377    2.602996   -0.007053
     10          6           0       -4.234123   -0.556013   -0.008021
     11          6           0       -3.656140   -1.833039   -0.001333
     12          1           0       -3.934673    1.552839   -0.014979
     13          1           0       -4.270495   -2.723895   -0.002195
     14          7           0        2.153476    0.244993    0.004502
     15          7           0        2.699107   -0.885889    0.005521
     16          6           0        4.102035   -0.932728    0.005129
     17          6           0        4.686273   -2.199452    0.000449
     18          6           0        4.925332    0.198558    0.006371
     19          6           0        6.058715   -2.344888   -0.002371
     20          1           0        4.047742   -3.074994   -0.002659
     21          6           0        6.294685    0.057987    0.004151
     22          1           0        4.479363    1.183690    0.007973
     23          6           0        6.890132   -1.216590   -0.001244
     24          1           0        6.500021   -3.334527   -0.005753
     25          1           0        6.926937    0.938527    0.006561
     26          7           0        8.257468   -1.348738    0.041423
     27          1           0        8.650968   -2.237228   -0.227052
     28          1           0        8.814678   -0.552623   -0.226765
     29          8           0        0.537237   -2.097217    0.007052
     30          8           0       -1.790811   -3.227536    0.008434
     31          1           0       -0.818333   -3.186334    0.009767
     32         16           0       -6.029415   -0.434253   -0.003231
     33          8           0       -6.462020   -1.058564    1.267883
     34          8           0       -6.339194    1.008782   -0.078154
     35          8           0       -6.478712   -1.191090   -1.193648
     36         16           0        1.045875    3.094286    0.001344
     37          8           0        1.848061    3.094974    1.243016
     38          8           0        0.010818    4.152095   -0.002292
     39          8           0        1.855424    3.093835   -1.235552
     40          1           0        1.543787   -1.948305    0.007108
 ---------------------------------------------------------------------
                    Distance matrix (angstroms):
                    1          2          3          4          5
     1  C    0.000000
     2  C    1.395110   0.000000
     3  C    2.462126   1.424482   0.000000
     4  C    2.828025   2.438244   1.416206   0.000000
     5  C    2.422367   2.789646   2.450914   1.421822   0.000000
     6  C    1.429303   2.427607   2.825662   2.423458   1.357243
     7  C    3.782878   2.508133   1.429149   2.448052   3.749394
     8  C    4.238375   3.734637   2.447819   1.410389   2.459679
     9  H    3.401061   3.870528   3.425728   2.165349   1.080882
    10  C    5.060273   4.215968   2.792373   2.400002   3.702569
    11  C    4.889234   3.747957   2.427371   2.797209   4.219012
    12  H    4.865942   4.601069   3.428143   2.164874   2.690572
    13  H    5.851816   4.622432   3.404010   3.879359   5.301155
    14  N    1.395094   2.457971   3.758972   4.221787   3.669782
    15  N    2.257747   2.729919   4.153350   4.949780   4.677996
    16  C    3.552574   4.133154   5.556928   6.321218   5.929320
    17  C    4.638508   4.897558   6.294510   7.256028   7.059848
    18  C    4.167340   5.072607   6.458604   6.992972   6.334237
    19  C    5.909260   6.262736   7.666955   8.593869   8.315111
    20  H    4.689893   4.630664   5.948307   7.062060   7.081330
    21  C    5.540097   6.394982   7.797058   8.367157   7.701878
    22  H    3.831782   4.960796   6.259869   6.581166   5.741897
    23  C    6.308755   6.929017   8.353495   9.109365   8.618734
    24  H    6.778155   6.976090   8.343818   9.368020   9.199330
    25  H    6.204687   7.192024   8.561568   9.001886   8.201290
    26  N    7.671318   8.301483   9.725926  10.478401   9.958481
    27  H    8.283701   8.789929  10.207033  11.051478  10.627026
    28  H    8.101070   8.854635  10.274107  10.927050  10.296188
    29  O    2.375678   1.341267   2.369225   3.650757   4.130835
    30  O    4.326550   2.932288   2.438197   3.703358   4.887354
    31  H    3.797363   2.435024   2.457109   3.858293   4.834488
    32  S    6.824234   6.015311   4.591450   4.067722   5.210249
    33  O    7.449589   6.556572   5.171884   4.826657   6.004771
    34  O    7.136772   6.586215   5.214738   4.311641   5.132170
    35  O    7.479318   6.565483   5.179124   4.864535   6.062925
    36  S    2.840728   4.119654   4.638161   4.070749   2.719452
    37  O    3.273388   4.569765   5.264295   4.874401   3.643050
    38  O    3.955300   5.034453   5.176342   4.229346   2.818216
    39  O    3.274501   4.572024   5.267031   4.875845   3.643561
    40  H    2.351412   1.901573   3.205270   4.339769   4.536246
                    6          7          8          9         10
     6  C    0.000000
     7  C    4.254085   0.000000
     8  C    3.705359   2.808075   0.000000
     9  H    2.110080   4.610709   2.679754   0.000000
    10  C    4.823218   2.404957   1.367551   4.040849   0.000000
    11  C    5.056122   1.373184   2.417477   4.842404   1.401751
    12  H    4.043898   3.889378   1.081366   2.456136   2.130018
    13  H    6.113441   2.118581   3.397061   5.908428   2.168195
    14  N    2.420700   4.965650   5.631799   4.529967   6.437639
    15  N    3.549562   5.105858   6.338775   5.625950   6.941087
    16  C    4.697247   6.475887   7.719646   6.806772   8.344677
    17  C    5.911311   6.979967   8.614517   8.001992   9.070525
    18  C    4.999852   7.534613   8.402383   7.061674   9.190496
    19  C    7.106338   8.357031   9.965247   9.214257  10.447135
    20  H    6.068211   6.433047   8.356556   8.089598   8.656476
    21  C    6.360890   8.821323   9.776990   8.403705  10.546703
    22  H    4.384803   7.468602   7.970997   6.354296   8.885475
    23  C    7.320362   9.211106  10.512794   9.414183  11.143853
    24  H    8.038491   8.895031  10.708529  10.135606  11.087921
    25  H    6.844360   9.665428  10.401732   8.800168  11.260690
    26  N    8.645756  10.565889  11.883179  10.726428  12.516818
    27  H    9.342992  10.946589  12.443868  11.441876  12.996154
    28  H    8.956668  11.197313  12.336954  10.993962  13.050635
    29  O    3.663699   2.830002   4.816468   5.211714   5.014121
    30  O    5.133481   1.351476   4.158180   5.831053   3.620370
    31  H    4.817850   1.908212   4.602982   5.858286   4.311209
    32  S    6.448683   4.043141   2.753398   5.276784   1.799422
    33  O    7.179706   4.454094   3.642328   6.129649   2.616106
    34  O    6.470804   5.028486   2.903789   4.892393   2.623895
    35  O    7.231274   4.425757   3.686711   6.204997   2.616718
    36  S    1.813534   6.065594   5.168731   2.803646   6.418969
    37  O    2.642474   6.658143   6.014351   3.807319   7.203316
    38  O    2.612566   6.541691   4.988594   2.318627   6.339231
    39  O    2.643072   6.661675   6.015224   3.807048   7.204916
    40  H    3.773071   3.833834   5.612589   5.597336   5.943311
                   11         12         13         14         15
    11  C    0.000000
    12  H    3.397343   0.000000
    13  H    1.082154   4.289918   0.000000
    14  N    6.170080   6.227070   7.076845   0.000000
    15  N    6.425442   7.067874   7.207890   1.255630   0.000000
    16  C    7.810242   8.412320   8.561985   2.276820   1.403710
    17  C    8.350456   9.402161   8.972108   3.519998   2.382079
    18  C    8.818679   8.962936   9.649043   2.772246   2.476308
    19  C    9.728329  10.726613  10.336160   4.685981   3.662745
    20  H    7.803348   9.226913   8.325642   3.822382   2.571198
    21  C   10.128915  10.338022  10.925288   4.145429   3.717403
    22  H    8.676817   8.422161   9.582762   2.508170   2.729922
    23  C   10.564272  11.173465  11.261951   4.957032   4.204057
    24  H   10.266551  11.522554  10.787812   5.630765   4.521383
    25  H   10.939979  10.878989  11.781166   4.823580   4.604676
    26  N   11.923524  12.532782  12.603286   6.308729   5.577715
    27  H   12.315811  13.145643  12.932579   6.959341   6.107770
    28  H   12.538404  12.923768  13.265994   6.712771   6.129048
    29  O    4.201698   5.772466   4.848411   2.845730   2.478104
    30  O    2.328985   5.239149   2.530336   5.255080   5.063860
    31  H    3.143990   5.672032   3.483018   4.539348   4.202910
    32  S    2.754821   2.887320   2.887258   8.211037   8.740203
    33  O    3.175481   3.853913   3.031370   8.804667   9.249304
    34  O    3.909044   2.466113   4.268274   8.527347   9.235132
    35  O    3.130596   3.923079   2.940285   8.832473   9.260860
    36  S    6.810836   5.213654   7.881309   3.057002   4.309871
    37  O    7.491992   6.115614   8.535017   3.122434   4.254756
    38  O    7.019146   4.724742   8.099931   4.456061   5.710363
    39  O    7.494980   6.114710   8.537800   3.121294   4.253266
    40  H    5.201210   6.501693   5.865790   2.276463   1.569553
                   16         17         18         19         20
    16  C    0.000000
    17  C    1.394971   0.000000
    18  C    1.399152   2.409903   0.000000
    19  C    2.413057   1.380129   2.784555   0.000000
    20  H    2.142968   1.083654   3.389157   2.139408   0.000000
    21  C    2.406082   2.771829   1.376550   2.414442   3.855434
    22  H    2.149793   3.389471   1.081377   3.865917   4.280513
    23  C    2.802517   2.413092   2.421392   1.401539   3.396005
    24  H    3.393979   2.139653   3.868136   1.083581   2.465976
    25  H    3.388461   3.855842   2.134005   3.396277   4.939453
    26  N    4.176363   3.671353   3.674028   2.414280   4.550132
    27  H    4.737976   3.971396   4.457342   2.604198   4.684218
    28  H    4.733631   4.450551   3.968077   3.295132   5.397801
    29  O    3.750177   4.150301   4.952369   5.527038   3.644144
    30  O    6.323906   6.558173   7.539542   7.899002   5.840555
    31  H    5.411911   5.592380   6.666873   6.928345   4.867364
    32  S   10.143709  10.860106  10.973013  12.238194  10.417418
    33  O   10.640002  11.277962  11.525778  12.650572  10.776611
    34  O   10.620530  11.483025  11.293944  12.843714  11.161154
    35  O   10.651574  11.273844  11.550905  12.646639  10.759822
    36  S    5.055390   6.424652   4.841018   7.396836   6.860848
    37  O    4.778614   6.134360   4.403194   6.990901   6.667744
    38  O    6.526373   7.886827   6.307376   8.876252   8.278138
    39  O    4.774910   6.128645   4.398789   6.983416   6.661887
    40  H    2.752460   3.152513   4.005480   4.532322   2.745781
                   21         22         23         24         25
    21  C    0.000000
    22  H    2.136027   0.000000
    23  C    1.406817   3.401945   0.000000
    24  H    3.398737   4.949498   2.153570   0.000000
    25  H    1.084019   2.459822   2.155445   4.294345   0.000000
    26  N    2.415116   4.548449   1.374370   2.652208   2.646339
    27  H    3.297505   5.400018   2.047739   2.424791   3.621087
    28  H    2.603178   4.675985   2.048314   3.625669   2.416927
    29  O    6.147611   5.128812   6.413645   6.089819   7.074179
    30  O    8.727538   7.666420   8.910822   8.291534   9.662050
    31  H    7.817971   6.867510   7.956157   7.319870   8.775175
    32  S   12.333928  10.632605  12.943212  12.860729  13.028878
    33  O   12.867681  11.239614  13.413262  13.221824  13.595715
    34  O   12.669873  10.820314  13.415411  13.554151  13.266588
    35  O   12.890096  11.276653  13.421940  13.208063  13.626709
    36  S    6.063754   3.929283   7.262162   8.430741   6.263722
    37  O    5.525445   3.478806   6.749833   8.033595   5.654562
    38  O    7.499916   5.364647   8.726267   9.907536   7.626258
    39  O    5.519082   3.475639   6.741778   8.025492   5.648756
    40  H    5.157155   4.292669   5.396192   5.146458   6.108364
                   26         27         28         29         30
    26  N    0.000000
    27  H    1.008134   0.000000
    28  H    1.008071   1.692540   0.000000
    29  O    7.756506   8.118315   8.423567   0.000000
    30  O   10.222469  10.491277  10.940149   2.587939   0.000000
    31  H    9.260018   9.519692   9.989358   1.738894   0.973351
    32  S   14.316190  14.792378  14.846248   6.773955   5.076251
    33  O   14.773345  15.232415  15.357976   7.187356   5.301966
    34  O   14.786303  15.338308  15.234826   7.545846   6.216243
    35  O   14.788688  15.196576  15.337219   7.175395   5.250575
    36  S    8.470487   9.290567   8.585236   5.216364   6.929089
    37  O    7.891192   8.767726   7.999936   5.495882   7.398629
    38  O    9.913038  10.748309   9.984624   6.271452   7.596376
    39  O    7.896411   8.695788   7.921208   5.498064   7.402855
    40  H    6.740488   7.116905   7.407327   1.017505   3.571550
                   31         32         33         34         35
    31  H    0.000000
    32  S    5.893173   0.000000
    33  O    6.161287   1.480756   0.000000
    34  O    6.934452   1.477811   2.469984   0.000000
    35  O    6.121201   1.480461   2.465152   2.470471   0.000000
    36  S    6.551453   7.906348   8.672876   7.674301   8.741389
    37  O    6.934363   8.721422   9.290314   8.551540   9.676923
    38  O    7.385132   7.584128   8.406066   7.085819   8.490169
    39  O    6.938323   8.725635   9.627537   8.534564   9.371242
    40  H    2.666895   7.723072   8.153167   8.419799   8.147127
                   36         37         38         39         40
    36  S    0.000000
    37  O    1.478260   0.000000
    38  O    1.479972   2.458406   0.000000
    39  O    1.478269   2.478579   2.458336   0.000000
    40  H    5.067117   5.201415   6.290069   5.202356   0.000000
 Stoichiometry    C16H11N3O8S2(2-)
 Framework group  C1[X(C16H11N3O8S2)]
 Deg. of freedom   114
 Full point group                 C1      NOp   1
 Largest Abelian subgroup         C1      NOp   1
 Largest concise Abelian subgroup C1      NOp   1
                         Standard orientation:                         
 ---------------------------------------------------------------------
 Center     Atomic      Atomic             Coordinates (Angstroms)
 Number     Number       Type             X           Y           Z
 ---------------------------------------------------------------------
      1          6           0        0.758532    0.268166    0.003255
      2          6           0       -0.030862   -0.882133    0.004135
      3          6           0       -1.453650   -0.812719    0.001521
      4          6           0       -2.062563    0.465888   -0.003848
      5          6           0       -1.245237    1.629312   -0.004043
      6          6           0        0.109151    1.541430   -0.000093
      7          6           0       -2.290038   -1.971562    0.003247
      8          6           0       -3.468544    0.577214   -0.008797
      9          1           0       -1.714398    2.603060   -0.007052
     10          6           0       -4.234174   -0.555925   -0.008020
     11          6           0       -3.656202   -1.832957   -0.001332
     12          1           0       -3.934703    1.552924   -0.014978
     13          1           0       -4.270565   -2.723807   -0.002194
     14          7           0        2.153433    0.245021    0.004503
     15          7           0        2.699054   -0.885866    0.005522
     16          6           0        4.101982   -0.932718    0.005130
     17          6           0        4.686207   -2.199447    0.000450
     18          6           0        4.925289    0.198560    0.006372
     19          6           0        6.058648   -2.344896   -0.002370
     20          1           0        4.047668   -3.074983   -0.002658
     21          6           0        6.294640    0.057977    0.004151
     22          1           0        4.479329    1.183696    0.007974
     23          6           0        6.890075   -1.216606   -0.001243
     24          1           0        6.499944   -3.334540   -0.005752
     25          1           0        6.926901    0.938510    0.006562
     26          7           0        8.257411   -1.348767    0.041424
     27          1           0        8.650902   -2.237260   -0.227051
     28          1           0        8.814628   -0.552658   -0.226764
     29          8           0        0.537172   -2.097174    0.007053
     30          8           0       -1.790886   -3.227471    0.008435
     31          1           0       -0.818408   -3.186278    0.009768
     32         16           0       -6.029464   -0.434149   -0.003230
     33          8           0       -6.462074   -1.058455    1.267883
     34          8           0       -6.339230    1.008889   -0.078153
     35          8           0       -6.478768   -1.190981   -1.193647
     36         16           0        1.045859    3.094325    0.001345
     37          8           0        1.848045    3.095005    1.243017
     38          8           0        0.010812    4.152143   -0.002291
     39          8           0        1.855408    3.093866   -1.235551
     40          1           0        1.543723   -1.948272    0.007109
 ---------------------------------------------------------------------
 Rotational constants (GHZ):           0.2954845           0.0646973           0.0541900
 Standard basis: 6-311++G(d,p) (5D, 7F)
 There are   760 symmetry adapted cartesian basis functions of A   symmetry.
 There are   731 symmetry adapted basis functions of A   symmetry.
   731 basis functions,  1171 primitive gaussians,   760 cartesian basis functions
   113 alpha electrons      113 beta electrons
       nuclear repulsion energy      3042.0013724462 Hartrees.
 NAtoms=   40 NActive=   40 NUniq=   40 SFac= 1.00D+00 NAtFMM=   60 NAOKFM=F Big=F
 Integral buffers will be    131072 words long.
 Raffenetti 2 integral format.
 Two-electron integral symmetry is turned on.
 ------------------------------------------------------------------------------
 Polarizable Continuum Model (PCM)
 =================================
 Model                : PCM.
 Atomic radii         : UFF (Universal Force Field).
 Polarization charges : Total charges.
 Charge compensation  : None.
 Solution method      : On-the-fly selection.
 Cavity type          : Scaled VdW (van der Waals Surface) (Alpha=1.100).
 Cavity algorithm     : GePol (No added spheres)
                        Default sphere list used, NSphG=   40.
                        Lebedev-Laikov grids with approx.  5.0 points / Ang**2.
                        Smoothing algorithm: York/Karplus (Gamma=1.0000).
                        Polarization charges: spherical gaussians, with
                                              point-specific exponents (IZeta= 3).
                        Self-potential: point-specific (ISelfS= 7).
                        Self-field    : sphere-specific E.n sum rule (ISelfD= 2).
 1st derivatives      : Analytical E(r).r(x)/FMM algorithm (CHGder, D1EAlg=3).
                        Cavity 1st derivative terms included.
 Solvent              : Water, Eps=  78.355300 Eps(inf)=   1.777849
 ------------------------------------------------------------------------------
 One-electron integrals computed using PRISM.
 PrsmSu:  requested number of processors reduced to:  23 ShMem   1 Linda.
 NBasis=   731 RedAO= T EigKep=  1.27D-06  NBF=   731
 NBsUse=   721 1.00D-06 EigRej=  9.00D-07 NBFU=   721
 Initial guess from the checkpoint file:  "AV3_OH.chk"
 B after Tr=    -0.000000    0.000000   -0.000000
         Rot=    1.000000   -0.000036    0.000029   -0.000006 Ang=  -0.01 deg.
 Requested convergence on RMS density matrix=1.00D-08 within 128 cycles.
 Requested convergence on MAX density matrix=1.00D-06.
 Requested convergence on             energy=1.00D-06.
 No special actions if energy rises.
 CoulSu:  requested number of processors reduced to:  32 ShMem   1 Linda.
 Inv3:  Mode=1 IEnd=    36331200.
 Iteration    1 A*A^-1 deviation from unit magnitude is 3.77D-15 for   1647.
 Iteration    1 A*A^-1 deviation from orthogonality  is 2.11D-15 for   2074   1565.
 Iteration    1 A^-1*A deviation from unit magnitude is 3.55D-15 for   1647.
 Iteration    1 A^-1*A deviation from orthogonality  is 2.33D-15 for   2891    383.
 CoulSu:  requested number of processors reduced to:  32 ShMem   1 Linda.
 CoulSu:  requested number of processors reduced to:  32 ShMem   1 Linda.
 Error on total polarization charges =  0.02665
 SCF Done:  E(RCAM-B3LYP) =  -2178.82689765     A.U. after    9 cycles
            NFock=  9  Conv=0.82D-08     -V/T= 2.0023
 PrsmSu:  requested number of processors reduced to:  25 ShMem   1 Linda.
 D1PCM: PCM CHGder 1st derivatives, ID1Alg=3 FixD1E=F DoIter=F DoCFld=F I1PDM=0.
 CoulSu:  requested number of processors reduced to:  34 ShMem   1 Linda.
 CoulSu:  requested number of processors reduced to:  34 ShMem   1 Linda.
 CoulSu:  requested number of processors reduced to:  25 ShMem   1 Linda.
 CoulSu:  requested number of processors reduced to:  26 ShMem   1 Linda.
 Calling FoFJK, ICntrl=      2127 FMM=F ISym2X=0 I1Cent= 0 IOpClX= 0 NMat=1 NMatS=1 NMatT=0.
 ***** Axes restored to original set *****
 -------------------------------------------------------------------
 Center     Atomic                   Forces (Hartrees/Bohr)
 Number     Number              X              Y              Z
 -------------------------------------------------------------------
      1        6           0.000003514   -0.000024471    0.000008473
      2        6          -0.000007285    0.000002471    0.000000780
      3        6           0.000010228    0.000011170   -0.000001455
      4        6           0.000010748    0.000003018    0.000000079
      5        6          -0.000007471   -0.000007288    0.000001798
      6        6          -0.000006635    0.000013397   -0.000001750
      7        6           0.000005472    0.000010694   -0.000009420
      8        6           0.000011036   -0.000002307   -0.000019172
      9        1          -0.000002559    0.000000023   -0.000002329
     10        6           0.000001696   -0.000005645    0.000019186
     11        6           0.000008462   -0.000004752    0.000006969
     12        1          -0.000001207    0.000000246    0.000007261
     13        1          -0.000002783   -0.000002547    0.000002025
     14        7          -0.000002530   -0.000026348   -0.000001476
     15        7           0.000007315    0.000031293   -0.000014082
     16        6           0.000003146   -0.000019533    0.000013476
     17        6          -0.000024309    0.000002636    0.000005267
     18        6          -0.000011674    0.000019174    0.000000325
     19        6           0.000008095    0.000007807   -0.000001378
     20        1           0.000001508    0.000004661    0.000000142
     21        6           0.000021423   -0.000004423    0.000003357
     22        1           0.000011302   -0.000017182    0.000001452
     23        6          -0.000016147    0.000013028   -0.000007487
     24        1           0.000000526    0.000000094    0.000000925
     25        1           0.000003231   -0.000001693   -0.000000836
     26        7           0.000013711   -0.000007466    0.000020950
     27        1          -0.000000013    0.000003403   -0.000004508
     28        1           0.000000803    0.000001574   -0.000007214
     29        8          -0.000046009    0.000001096    0.000004472
     30        8          -0.000005245   -0.000001047    0.000002654
     31        1           0.000004771    0.000012180    0.000000465
     32       16          -0.000002018    0.000002516    0.000005212
     33        8           0.000009782    0.000000595   -0.000010495
     34        8          -0.000000937   -0.000004362   -0.000008848
     35        8          -0.000005667   -0.000000865    0.000000649
     36       16           0.000010810   -0.000026053   -0.000022538
     37        8          -0.000009192    0.000014787    0.000005077
     38        8           0.000005438   -0.000009917    0.000008790
     39        8          -0.000014116    0.000024273   -0.000004471
     40        1           0.000012781   -0.000014238   -0.000002325
 -------------------------------------------------------------------
 Cartesian Forces:  Max     0.000046009 RMS     0.000010996

 GradGradGradGradGradGradGradGradGradGradGradGradGradGradGradGradGradGrad
 Berny optimization.
 Using GEDIIS/GDIIS optimizer.
 FormGI is forming the generalized inverse of G from B-inverse, IUseBI=4.
 Internal  Forces:  Max     0.000061531 RMS     0.000013722
 Search for a local minimum.
 Step number   3 out of a maximum of  212
 All quantities printed in internal units (Hartrees-Bohrs-Radians)
 Mixed Optimization -- En-DIIS/RFO-DIIS
 Swapping is turned off.
 Update second derivatives using D2CorX and points    1    2    3
 DE= -5.23D-08 DEPred=-1.27D-07 R= 4.12D-01
 Trust test= 4.12D-01 RLast= 4.26D-03 DXMaxT set to 1.50D-01
 ITU=  0 -1  0
     Eigenvalues ---    0.00357   0.00462   0.01379   0.01421   0.01568
     Eigenvalues ---    0.01679   0.01764   0.01802   0.01848   0.01911
     Eigenvalues ---    0.02003   0.02029   0.02033   0.02041   0.02068
     Eigenvalues ---    0.02084   0.02094   0.02150   0.02155   0.02178
     Eigenvalues ---    0.02195   0.02209   0.02217   0.02228   0.02245
     Eigenvalues ---    0.02273   0.02295   0.02301   0.02333   0.02347
     Eigenvalues ---    0.02472   0.02912   0.04351   0.12402   0.12555
     Eigenvalues ---    0.12590   0.12897   0.15615   0.16000   0.16000
     Eigenvalues ---    0.16000   0.16000   0.16000   0.16000   0.16000
     Eigenvalues ---    0.16000   0.16008   0.16498   0.21669   0.22854
     Eigenvalues ---    0.23306   0.23327   0.23586   0.23797   0.24005
     Eigenvalues ---    0.24980   0.24999   0.25000   0.25000   0.25000
     Eigenvalues ---    0.25000   0.25000   0.25000   0.25000   0.25000
     Eigenvalues ---    0.25000   0.25000   0.25000   0.25000   0.25000
     Eigenvalues ---    0.25079   0.26161   0.32054   0.35423   0.35515
     Eigenvalues ---    0.35564   0.35735   0.35765   0.35841   0.35928
     Eigenvalues ---    0.36443   0.39268   0.39789   0.40243   0.41042
     Eigenvalues ---    0.41636   0.42373   0.42592   0.42978   0.44350
     Eigenvalues ---    0.44768   0.45235   0.45581   0.45950   0.46274
     Eigenvalues ---    0.46290   0.47385   0.47904   0.49083   0.49476
     Eigenvalues ---    0.50462   0.51103   0.52122   0.52669   0.54744
     Eigenvalues ---    0.56125   0.62363   0.81411   0.83422   0.83537
     Eigenvalues ---    0.83963   0.84368   0.84504   0.84599
 En-DIIS/RFO-DIIS/Sim-DIIS IScMMF=       -3 using points:     3    2    1
 RFO step:  Lambda=-1.16793818D-07.
 DidBck=T Rises=F RFO-DIIS coefs:    0.63435    0.40335   -0.03770
 Iteration  1 RMS(Cart)=  0.00058579 RMS(Int)=  0.00000011
 Iteration  2 RMS(Cart)=  0.00000016 RMS(Int)=  0.00000000
 Variable       Old X    -DE/DX   Delta X   Delta X   Delta X     New X
                                 (Linear)    (Quad)   (Total)
    R1        2.63638   0.00001  -0.00000   0.00001   0.00000   2.63638
    R2        2.70099   0.00004   0.00002   0.00003   0.00004   2.70103
    R3        2.63635   0.00002  -0.00001   0.00001   0.00001   2.63635
    R4        2.69188  -0.00004  -0.00001  -0.00003  -0.00004   2.69184
    R5        2.53463  -0.00000  -0.00002   0.00002   0.00000   2.53463
    R6        2.67624  -0.00003  -0.00001  -0.00002  -0.00003   2.67621
    R7        2.70070  -0.00002  -0.00000  -0.00002  -0.00002   2.70068
    R8        2.68685  -0.00003  -0.00001  -0.00002  -0.00002   2.68683
    R9        2.66525  -0.00001  -0.00001   0.00001  -0.00000   2.66525
   R10        2.56482   0.00000  -0.00000   0.00000   0.00000   2.56482
   R11        2.04257   0.00000  -0.00000   0.00000   0.00000   2.04257
   R12        3.42708  -0.00000  -0.00001   0.00001   0.00000   3.42708
   R13        2.59494  -0.00001   0.00000  -0.00001  -0.00001   2.59493
   R14        2.55392  -0.00001  -0.00001  -0.00000  -0.00001   2.55391
   R15        2.58430   0.00001   0.00001  -0.00000   0.00001   2.58430
   R16        2.04349   0.00000   0.00000  -0.00000   0.00000   2.04349
   R17        2.64893  -0.00000  -0.00001   0.00001  -0.00000   2.64892
   R18        3.40041  -0.00000   0.00000  -0.00000  -0.00000   3.40041
   R19        2.04497   0.00000   0.00000   0.00000   0.00000   2.04498
   R20        2.37280  -0.00002  -0.00001  -0.00000  -0.00001   2.37279
   R21        2.65263   0.00001  -0.00001   0.00003   0.00001   2.65264
   R22        2.63611  -0.00002  -0.00001  -0.00001  -0.00001   2.63610
   R23        2.64401   0.00002   0.00001   0.00000   0.00002   2.64403
   R24        2.60807   0.00001   0.00000   0.00001   0.00001   2.60807
   R25        2.04781  -0.00000  -0.00000   0.00000  -0.00000   2.04780
   R26        2.60130   0.00002   0.00001   0.00001   0.00002   2.60132
   R27        2.04351  -0.00002  -0.00001  -0.00002  -0.00003   2.04348
   R28        2.64852  -0.00000   0.00001  -0.00001  -0.00000   2.64852
   R29        2.04767   0.00000   0.00000  -0.00000   0.00000   2.04767
   R30        2.65850  -0.00001   0.00000  -0.00001  -0.00001   2.65849
   R31        2.04850   0.00000  -0.00000   0.00000   0.00000   2.04850
   R32        2.59718   0.00001  -0.00002   0.00004   0.00001   2.59720
   R33        1.90510  -0.00000  -0.00001   0.00001  -0.00000   1.90510
   R34        1.90498   0.00000  -0.00000   0.00001   0.00000   1.90498
   R35        1.92281   0.00001   0.00007  -0.00007  -0.00000   1.92280
   R36        1.83937   0.00001   0.00001  -0.00001   0.00000   1.83937
   R37        2.79822  -0.00001  -0.00001  -0.00000  -0.00001   2.79822
   R38        2.79266  -0.00000  -0.00000   0.00000  -0.00000   2.79266
   R39        2.79767   0.00000  -0.00000   0.00000   0.00000   2.79767
   R40        2.79351   0.00000   0.00000  -0.00000  -0.00000   2.79350
   R41        2.79674  -0.00001  -0.00000  -0.00000  -0.00001   2.79674
   R42        2.79352  -0.00001  -0.00000   0.00000  -0.00000   2.79352
    A1        2.06853  -0.00003  -0.00001  -0.00002  -0.00003   2.06850
    A2        2.15564   0.00002   0.00004  -0.00005  -0.00001   2.15563
    A3        2.05901   0.00000  -0.00003   0.00007   0.00004   2.05906
    A4        2.12348   0.00000   0.00000   0.00000   0.00000   2.12349
    A5        2.10284   0.00006   0.00001   0.00007   0.00008   2.10292
    A6        2.05686  -0.00006  -0.00001  -0.00008  -0.00009   2.05677
    A7        2.06400   0.00003   0.00001   0.00002   0.00003   2.06403
    A8        2.14721  -0.00004  -0.00001  -0.00003  -0.00005   2.14717
    A9        2.07197   0.00001   0.00000   0.00001   0.00001   2.07198
   A10        2.08472  -0.00001  -0.00000  -0.00001  -0.00001   2.08471
   A11        2.09427  -0.00001  -0.00000  -0.00001  -0.00001   2.09426
   A12        2.10419   0.00001   0.00001   0.00002   0.00002   2.10421
   A13        2.11841   0.00000  -0.00000   0.00001   0.00000   2.11842
   A14        2.08019  -0.00000  -0.00000  -0.00000  -0.00001   2.08018
   A15        2.08459   0.00000   0.00000  -0.00000   0.00000   2.08459
   A16        2.10722   0.00000   0.00000   0.00000   0.00000   2.10723
   A17        2.12719   0.00004   0.00001   0.00007   0.00008   2.12727
   A18        2.04877  -0.00005  -0.00002  -0.00007  -0.00008   2.04869
   A19        2.09485   0.00001   0.00000   0.00001   0.00001   2.09486
   A20        2.13812  -0.00002   0.00000  -0.00004  -0.00003   2.13809
   A21        2.05021   0.00001  -0.00001   0.00003   0.00002   2.05024
   A22        2.08599  -0.00000   0.00000  -0.00000   0.00000   2.08599
   A23        2.09552   0.00000   0.00001  -0.00001   0.00000   2.09552
   A24        2.10167  -0.00000  -0.00001   0.00001  -0.00000   2.10167
   A25        2.12237  -0.00000   0.00000   0.00000   0.00000   2.12238
   A26        2.09728   0.00000   0.00000   0.00000   0.00000   2.09728
   A27        2.06351  -0.00000  -0.00000  -0.00000  -0.00001   2.06350
   A28        2.09692  -0.00001  -0.00001  -0.00001  -0.00002   2.09690
   A29        2.07342   0.00001   0.00001   0.00001   0.00001   2.07343
   A30        2.11284   0.00000   0.00000   0.00000   0.00001   2.11284
   A31        2.03691   0.00001   0.00006  -0.00011  -0.00005   2.03687
   A32        2.05371   0.00005   0.00000   0.00011   0.00011   2.05382
   A33        2.03631  -0.00002   0.00000  -0.00004  -0.00004   2.03627
   A34        2.16653   0.00003  -0.00000   0.00005   0.00005   2.16658
   A35        2.08034  -0.00000   0.00000  -0.00001  -0.00001   2.08033
   A36        2.10852  -0.00000  -0.00001   0.00001  -0.00000   2.10852
   A37        2.07933  -0.00000   0.00001  -0.00001  -0.00000   2.07933
   A38        2.09533   0.00000   0.00000   0.00000   0.00001   2.09534
   A39        2.09761   0.00000   0.00000   0.00000   0.00001   2.09762
   A40        2.08739   0.00000  -0.00000   0.00001   0.00001   2.08739
   A41        2.09819  -0.00000  -0.00000  -0.00001  -0.00001   2.09818
   A42        2.10027   0.00001   0.00001   0.00000   0.00001   2.10028
   A43        2.09583  -0.00000  -0.00000  -0.00000  -0.00000   2.09583
   A44        2.08708  -0.00000  -0.00001   0.00000  -0.00001   2.08708
   A45        2.11014  -0.00000  -0.00001   0.00000  -0.00001   2.11013
   A46        2.09122   0.00001   0.00001   0.00000   0.00001   2.09123
   A47        2.08183  -0.00000  -0.00000  -0.00000  -0.00001   2.08182
   A48        2.06950  -0.00000  -0.00000  -0.00000  -0.00000   2.06950
   A49        2.10924  -0.00000  -0.00001   0.00000  -0.00000   2.10924
   A50        2.10376   0.00000   0.00001  -0.00000   0.00000   2.10376
   A51        2.05420  -0.00000   0.00004  -0.00007  -0.00003   2.05418
   A52        2.05525  -0.00000   0.00003  -0.00006  -0.00003   2.05522
   A53        1.99261  -0.00000   0.00004  -0.00007  -0.00003   1.99258
   A54        1.86124   0.00003  -0.00002   0.00012   0.00010   1.86134
   A55        1.90677  -0.00002  -0.00003  -0.00002  -0.00005   1.90671
   A56        1.83925  -0.00002  -0.00001  -0.00001  -0.00003   1.83922
   A57        1.84947   0.00000   0.00001   0.00000   0.00001   1.84948
   A58        1.84009   0.00001   0.00001   0.00001   0.00002   1.84011
   A59        1.97575   0.00001   0.00001   0.00001   0.00002   1.97577
   A60        1.96714  -0.00000  -0.00000  -0.00001  -0.00001   1.96713
   A61        1.97665  -0.00001  -0.00001   0.00000  -0.00001   1.97664
   A62        1.85599   0.00002   0.00000   0.00005   0.00005   1.85605
   A63        1.82430  -0.00002  -0.00001  -0.00005  -0.00006   1.82424
   A64        1.85660   0.00004   0.00002   0.00005   0.00007   1.85667
   A65        1.96195  -0.00002  -0.00001  -0.00005  -0.00007   1.96188
   A66        1.98847   0.00000  -0.00000   0.00006   0.00006   1.98852
   A67        1.96185  -0.00002   0.00000  -0.00004  -0.00004   1.96181
    D1        0.00022  -0.00000  -0.00004   0.00004  -0.00000   0.00022
    D2        3.14142   0.00000  -0.00001   0.00004   0.00003   3.14146
    D3       -3.14054  -0.00001  -0.00012   0.00003  -0.00008  -3.14062
    D4        0.00066  -0.00001  -0.00008   0.00003  -0.00005   0.00062
    D5       -0.00144   0.00000   0.00002  -0.00002  -0.00000  -0.00144
    D6        3.13976  -0.00000  -0.00001  -0.00001  -0.00002   3.13974
    D7        3.13937   0.00001   0.00009  -0.00002   0.00007   3.13944
    D8       -0.00262   0.00001   0.00006  -0.00000   0.00006  -0.00256
    D9        0.00089   0.00001   0.00010   0.00001   0.00011   0.00100
   D10       -3.13987   0.00000   0.00003   0.00000   0.00003  -3.13984
   D11        0.00144   0.00000   0.00004  -0.00003   0.00001   0.00146
   D12       -3.14083   0.00000   0.00009  -0.00003   0.00006  -3.14077
   D13       -3.13977  -0.00000   0.00001  -0.00003  -0.00002  -3.13979
   D14        0.00114   0.00000   0.00006  -0.00004   0.00002   0.00117
   D15       -0.00114  -0.00000  -0.00000  -0.00006  -0.00006  -0.00120
   D16        3.14007  -0.00000   0.00003  -0.00006  -0.00003   3.14005
   D17       -0.00194  -0.00000  -0.00002   0.00000  -0.00002  -0.00195
   D18        3.13977   0.00000   0.00000   0.00001   0.00001   3.13979
   D19        3.14031  -0.00000  -0.00007   0.00001  -0.00006   3.14025
   D20       -0.00116  -0.00000  -0.00005   0.00002  -0.00003  -0.00120
   D21       -3.14002  -0.00001  -0.00006  -0.00003  -0.00009  -3.14011
   D22        0.00081  -0.00000  -0.00005   0.00002  -0.00003   0.00078
   D23        0.00089  -0.00000  -0.00001  -0.00004  -0.00005   0.00084
   D24       -3.14147   0.00000   0.00001   0.00001   0.00002  -3.14145
   D25        0.00078   0.00000  -0.00000   0.00002   0.00001   0.00079
   D26       -3.14043   0.00000  -0.00000   0.00002   0.00001  -3.14042
   D27       -3.14093  -0.00000  -0.00002   0.00001  -0.00002  -3.14095
   D28        0.00104  -0.00000  -0.00002   0.00001  -0.00001   0.00103
   D29        0.00029   0.00000   0.00007   0.00001   0.00008   0.00037
   D30       -3.13937  -0.00000  -0.00000  -0.00004  -0.00004  -3.13941
   D31       -3.14118   0.00001   0.00009   0.00003   0.00011  -3.14107
   D32        0.00234  -0.00000   0.00001  -0.00003  -0.00001   0.00233
   D33        0.00094  -0.00000   0.00000  -0.00000  -0.00000   0.00094
   D34       -3.14027   0.00000   0.00003  -0.00002   0.00001  -3.14026
   D35       -3.14103  -0.00000   0.00000  -0.00001  -0.00001  -3.14104
   D36        0.00094   0.00000   0.00003  -0.00002   0.00001   0.00095
   D37       -1.06235  -0.00001   0.00064  -0.00007   0.00056  -1.06179
   D38       -3.14108   0.00001   0.00065  -0.00001   0.00065  -3.14044
   D39        1.06320   0.00002   0.00064   0.00005   0.00069   1.06389
   D40        2.07886  -0.00001   0.00061  -0.00006   0.00055   2.07941
   D41        0.00012   0.00001   0.00062   0.00001   0.00063   0.00076
   D42       -2.07878   0.00002   0.00062   0.00006   0.00068  -2.07810
   D43        0.00026   0.00000   0.00005   0.00003   0.00007   0.00033
   D44        3.13919   0.00000   0.00003   0.00000   0.00004   3.13923
   D45       -3.14060   0.00000   0.00003  -0.00002   0.00001  -3.14059
   D46       -0.00167  -0.00000   0.00002  -0.00004  -0.00003  -0.00170
   D47       -0.00090  -0.00000   0.00002  -0.00006  -0.00004  -0.00095
   D48        3.13994   0.00000   0.00004  -0.00001   0.00002   3.13996
   D49        0.00090  -0.00000  -0.00003  -0.00003  -0.00006   0.00084
   D50        3.13449  -0.00000   0.00000  -0.00000   0.00000   3.13449
   D51        3.14055   0.00000   0.00004   0.00002   0.00007   3.14062
   D52       -0.00904   0.00001   0.00007   0.00005   0.00012  -0.00892
   D53       -0.00118  -0.00000  -0.00003   0.00001  -0.00002  -0.00121
   D54       -3.14006   0.00000  -0.00001   0.00003   0.00002  -3.14004
   D55       -3.13492  -0.00000  -0.00006  -0.00002  -0.00008  -3.13500
   D56        0.00939  -0.00000  -0.00004   0.00000  -0.00004   0.00935
   D57       -2.04428  -0.00000   0.00013   0.00006   0.00018  -2.04409
   D58        0.05441   0.00000   0.00014   0.00006   0.00020   0.05461
   D59        2.15455   0.00000   0.00013   0.00007   0.00020   2.15475
   D60        1.08958   0.00000   0.00016   0.00008   0.00024   1.08982
   D61       -3.09492   0.00000   0.00017   0.00009   0.00025  -3.09466
   D62       -0.99477   0.00000   0.00016   0.00009   0.00025  -0.99452
   D63        3.14026   0.00004   0.00015   0.00021   0.00037   3.14063
   D64       -3.13692   0.00001   0.00005   0.00006   0.00012  -3.13680
   D65        0.00232   0.00001   0.00005   0.00006   0.00011   0.00243
   D66        3.13984  -0.00000  -0.00001  -0.00002  -0.00003   3.13981
   D67        0.00004   0.00000  -0.00000   0.00000   0.00000   0.00004
   D68        0.00048  -0.00000  -0.00001  -0.00001  -0.00002   0.00046
   D69       -3.13932   0.00000   0.00001   0.00001   0.00001  -3.13931
   D70       -3.14015   0.00000   0.00001   0.00000   0.00001  -3.14014
   D71        0.00026   0.00000   0.00001   0.00001   0.00002   0.00028
   D72       -0.00096   0.00000   0.00000  -0.00000  -0.00000  -0.00097
   D73        3.13944   0.00000   0.00000   0.00000   0.00000   3.13945
   D74       -0.00056   0.00000   0.00001   0.00002   0.00003  -0.00053
   D75        3.14133   0.00000   0.00001   0.00001   0.00002   3.14135
   D76        3.13922  -0.00000  -0.00000  -0.00001  -0.00001   3.13922
   D77       -0.00207  -0.00000  -0.00001  -0.00001  -0.00002  -0.00209
   D78        0.00154   0.00000   0.00000   0.00002   0.00002   0.00156
   D79       -3.14007   0.00000  -0.00000   0.00001   0.00000  -3.14007
   D80       -3.13886   0.00000   0.00000   0.00001   0.00002  -3.13885
   D81        0.00271  -0.00000  -0.00000   0.00000  -0.00000   0.00271
   D82        0.00109  -0.00000  -0.00001  -0.00000  -0.00001   0.00108
   D83        3.10307  -0.00000   0.00001  -0.00003  -0.00002   3.10304
   D84       -3.14080   0.00000  -0.00000   0.00000  -0.00000  -3.14080
   D85       -0.03882  -0.00000   0.00001  -0.00003  -0.00002  -0.03884
   D86       -0.00159  -0.00000  -0.00000  -0.00001  -0.00002  -0.00160
   D87       -3.10369  -0.00000  -0.00001   0.00001  -0.00000  -3.10369
   D88        3.14002  -0.00000   0.00001  -0.00000   0.00000   3.14002
   D89        0.03792   0.00000  -0.00001   0.00002   0.00002   0.03793
   D90        0.34042   0.00001  -0.00009   0.00017   0.00007   0.34049
   D91        2.83651  -0.00001   0.00010  -0.00018  -0.00007   2.83644
   D92       -2.84157   0.00000  -0.00008   0.00014   0.00006  -2.84151
   D93       -0.34548  -0.00001   0.00012  -0.00020  -0.00009  -0.34556
         Item               Value     Threshold  Converged?
 Maximum Force            0.000062     0.000450     YES
 RMS     Force            0.000014     0.000300     YES
 Maximum Displacement     0.002234     0.001800     NO 
 RMS     Displacement     0.000586     0.001200     YES
 Predicted change in Energy=-5.839013D-08
 GradGradGradGradGradGradGradGradGradGradGradGradGradGradGradGradGradGrad

                          Input orientation:                          
 ---------------------------------------------------------------------
 Center     Atomic      Atomic             Coordinates (Angstroms)
 Number     Number       Type             X           Y           Z
 ---------------------------------------------------------------------
      1          6           0        0.758597    0.268382    0.002795
      2          6           0       -0.030734   -0.881964    0.003759
      3          6           0       -1.453506   -0.812636    0.001316
      4          6           0       -2.062531    0.465900   -0.003983
      5          6           0       -1.245305    1.629377   -0.004260
      6          6           0        0.109094    1.541609   -0.000468
      7          6           0       -2.289763   -1.971558    0.003203
      8          6           0       -3.468522    0.577081   -0.008748
      9          1           0       -1.714550    2.603086   -0.007203
     10          6           0       -4.234037   -0.556140   -0.007762
     11          6           0       -3.655937   -1.833113   -0.001104
     12          1           0       -3.934784    1.552743   -0.014839
     13          1           0       -4.270208   -2.724030   -0.001815
     14          7           0        2.153503    0.245302    0.003972
     15          7           0        2.699120   -0.885581    0.004882
     16          6           0        4.102049   -0.932588    0.004876
     17          6           0        4.686081   -2.199398   -0.000083
     18          6           0        4.925543    0.198563    0.006738
     19          6           0        6.058505   -2.345054   -0.002602
     20          1           0        4.047408   -3.074831   -0.003684
     21          6           0        6.294882    0.057770    0.004849
     22          1           0        4.479753    1.183761    0.008564
     23          6           0        6.890114   -1.216900   -0.000848
     24          1           0        6.499649   -3.334765   -0.006226
     25          1           0        6.927288    0.938198    0.007744
     26          7           0        8.257424   -1.349300    0.042151
     27          1           0        8.650824   -2.237752   -0.226596
     28          1           0        8.814821   -0.553190   -0.225670
     29          8           0        0.537269   -2.097022    0.006641
     30          8           0       -1.790438   -3.227394    0.008360
     31          1           0       -0.817967   -3.186017    0.009512
     32         16           0       -6.029338   -0.434555   -0.002737
     33          8           0       -6.461655   -1.058562    1.268620
     34          8           0       -6.339283    1.008424   -0.078031
     35          8           0       -6.478764   -1.191775   -1.192863
     36         16           0        1.045542    3.094661    0.000896
     37          8           0        1.848483    3.095167    1.242078
     38          8           0        0.010252    4.152242   -0.001693
     39          8           0        1.854267    3.094889   -1.236538
     40          1           0        1.543838   -1.948247    0.006544
 ---------------------------------------------------------------------
                    Distance matrix (angstroms):
                    1          2          3          4          5
     1  C    0.000000
     2  C    1.395113   0.000000
     3  C    2.462113   1.424462   0.000000
     4  C    2.828042   2.438236   1.416190   0.000000
     5  C    2.422391   2.789638   2.450879   1.421808   0.000000
     6  C    1.429325   2.427606   2.825631   2.423452   1.357245
     7  C    3.782834   2.508073   1.429136   2.448037   3.749358
     8  C    4.238391   3.734615   2.447796   1.410387   2.459683
     9  H    3.401088   3.870520   3.425693   2.165333   1.080883
    10  C    5.060271   4.215928   2.792351   2.400003   3.702569
    11  C    4.889213   3.747907   2.427362   2.797215   4.219004
    12  H    4.865975   4.601059   3.428122   2.164873   2.690591
    13  H    5.851788   4.622378   3.404005   3.879367   5.301150
    14  N    1.395097   2.457970   3.758956   4.221809   3.669826
    15  N    2.257712   2.729856   4.153267   4.949737   4.677989
    16  C    3.552606   4.133093   5.556851   6.321226   5.929414
    17  C    4.638436   4.897346   6.294255   7.255867   7.059808
    18  C    4.167533   5.072695   6.458701   6.993195   6.334565
    19  C    5.909239   6.262548   7.666722   8.593759   8.315152
    20  H    4.689711   4.630331   5.947907   7.061737   7.081129
    21  C    5.540290   6.395039   7.797123   8.367378   7.702237
    22  H    3.832095   4.961021   6.260129   6.581563   5.742389
    23  C    6.308849   6.928950   8.353408   9.109428   8.618953
    24  H    6.778084   6.975832   8.343491   9.367816   9.199294
    25  H    6.204952   7.192153   8.561726   9.002225   8.201777
    26  N    7.671431   8.301412   9.725833  10.478481   9.958741
    27  H    8.283753   8.789805  10.206878  11.051482  10.627205
    28  H    8.101230   8.854635  10.274111  10.927236  10.296541
    29  O    2.375739   1.341269   2.369147   3.650704   4.130828
    30  O    4.326438   2.932171   2.438161   3.703324   4.887285
    31  H    3.797166   2.434837   2.457013   3.858188   4.834338
    32  S    6.824237   6.015270   4.591428   4.067724   5.210259
    33  O    7.449506   6.556509   5.171857   4.826571   6.004628
    34  O    7.136813   6.586201   5.214727   4.311661   5.132216
    35  O    7.479375   6.565438   5.179096   4.864610   6.063066
    36  S    2.840809   4.119699   4.638126   4.070691   2.719386
    37  O    3.273284   4.569733   5.264366   4.874603   3.643271
    38  O    3.955301   5.034375   5.176157   4.229131   2.818027
    39  O    3.274993   4.572409   5.267105   4.875662   3.643292
    40  H    2.351609   1.901643   3.205262   4.339829   4.536390
                    6          7          8          9         10
     6  C    0.000000
     7  C    4.254042   0.000000
     8  C    3.705363   2.808056   0.000000
     9  H    2.110085   4.610678   2.679760   0.000000
    10  C    4.823213   2.404939   1.367554   4.040857   0.000000
    11  C    5.056106   1.373178   2.417482   4.842405   1.401750
    12  H    4.043919   3.889359   1.081367   2.456159   2.130021
    13  H    6.113424   2.118584   3.397069   5.908433   2.168200
    14  N    2.420751   4.965589   5.631820   4.530022   6.437632
    15  N    3.549579   5.105712   6.338720   5.625960   6.940990
    16  C    4.697379   6.475703   7.719639   6.806906   8.344591
    17  C    5.911340   6.979565   8.614317   8.001999   9.070219
    18  C    5.000201   7.534592   8.402609   7.062065   9.190631
    19  C    7.106451   8.356621   9.965097   9.214364  10.446849
    20  H    6.068100   6.432495   8.356176   8.089432   8.655989
    21  C    6.361272   8.821242   9.777214   8.404153  10.546809
    22  H    4.385293   7.468763   7.971413   6.354850   8.885812
    23  C    7.320628   9.210845  10.512838   9.414488  11.143760
    24  H    8.038547   8.894503  10.708266  10.135637  11.087505
    25  H    6.844847   9.665440  10.402093   8.800763  11.260926
    26  N    8.646065  10.565599  11.883238  10.726792  12.516716
    27  H    9.343224  10.946237  12.443845  11.442151  12.995974
    28  H    8.957040  11.197139  12.337142  10.994428  13.050677
    29  O    3.663743   2.829816   4.816370   5.211707   5.013969
    30  O    5.133390   1.351472   4.158159   5.830995   3.620364
    31  H    4.817674   1.908175   4.602899   5.858144   4.311158
    32  S    6.448688   4.043122   2.753402   5.276806   1.799421
    33  O    7.179570   4.454158   3.642231   6.129470   2.616078
    34  O    6.470848   5.028470   2.903813   4.892455   2.623902
    35  O    7.231395   4.425649   3.686806   6.205199   2.616734
    36  S    1.813535   6.065545   5.168662   2.803537   6.418907
    37  O    2.642525   6.658198   6.014638   3.807631   7.203554
    38  O    2.612504   6.541484   4.988355   2.318373   6.338997
    39  O    2.643138   6.661744   6.014890   3.806519   7.204675
    40  H    3.773279   3.833673   5.612599   5.597492   5.943232
                   11         12         13         14         15
    11  C    0.000000
    12  H    3.397347   0.000000
    13  H    1.082156   4.289926   0.000000
    14  N    6.170043   6.227117   7.076794   0.000000
    15  N    6.425309   7.067849   7.207736   1.255625   0.000000
    16  C    7.810079   8.412369   8.561775   2.276897   1.403717
    17  C    8.350056   9.402026   8.971642   3.520019   2.382049
    18  C    8.818706   8.963240   9.649013   2.772436   2.476355
    19  C    9.727923  10.726546  10.335663   4.686046   3.662730
    20  H    7.802781   9.226589   8.325010   3.822331   2.571142
    21  C   10.128883  10.338346  10.925181   4.145623   3.717448
    22  H    8.677043   8.422656   9.582940   2.508419   2.729990
    23  C   10.564039  11.173609  11.261626   4.957171   4.204074
    24  H   10.266007  11.522378  10.787160   5.630805   4.521354
    25  H   10.940059  10.879466  11.781167   4.823810   4.604735
    26  N   11.923259  12.532958  12.602911   6.308888   5.577739
    27  H   12.315476  13.145730  12.932132   6.959447   6.107760
    28  H   12.538279  12.924079  13.265769   6.712934   6.129065
    29  O    4.201510   5.772391   4.848200   2.845821   2.478143
    30  O    2.328990   5.239128   2.530363   5.254932   5.063618
    31  H    3.143968   5.671947   3.483034   4.539120   4.202609
    32  S    2.754814   2.887327   2.887254   8.211037   8.740106
    33  O    3.175560   3.853733   3.031539   8.804563   9.249149
    34  O    3.909041   2.466150   4.268266   8.527397   9.235088
    35  O    3.130488   3.923258   2.940088   8.832533   9.260772
    36  S    6.810790   5.213579   7.881267   3.057194   4.310066
    37  O    7.492135   6.115970   8.535145   3.122127   4.254479
    38  O    7.018932   4.724497   8.099718   4.456202   5.710492
    39  O    7.494921   6.114235   8.537771   3.122268   4.254297
    40  H    5.201055   6.501745   5.865580   2.276699   1.569694
                   16         17         18         19         20
    16  C    0.000000
    17  C    1.394964   0.000000
    18  C    1.399160   2.409897   0.000000
    19  C    2.413055   1.380134   2.784542   0.000000
    20  H    2.142957   1.083651   3.389150   2.139414   0.000000
    21  C    2.406102   2.771835   1.376559   2.414434   3.855438
    22  H    2.149792   3.389456   1.081364   3.865891   4.280500
    23  C    2.802530   2.413102   2.421390   1.401537   3.396012
    24  H    3.393974   2.139654   3.868123   1.083582   2.465980
    25  H    3.388484   3.855849   2.134020   3.396267   4.939457
    26  N    4.176383   3.671367   3.674039   2.414285   4.550142
    27  H    4.737972   3.971393   4.457329   2.604189   4.684211
    28  H    4.733636   4.450548   3.968076   3.295119   5.397794
    29  O    3.750142   4.150081   4.952440   5.526813   3.643802
    30  O    6.323571   6.557603   7.539336   7.898390   5.839851
    31  H    5.411517   5.591785   6.666580   6.927715   4.866663
    32  S   10.143624  10.859784  10.973165  12.237891  10.416903
    33  O   10.639773  11.277550  11.525667  12.650118  10.776108
    34  O   10.620538  11.482808  11.294219  12.843546  11.160728
    35  O   10.651543  11.273500  11.551204  12.646339  10.759198
    36  S    5.055788   6.424998   4.841677   7.397318   6.861039
    37  O    4.778289   6.134114   4.402804   6.990673   6.667539
    38  O    6.526741   7.887124   6.308070   8.876723   8.278237
    39  O    4.776422   6.130047   4.400816   6.985069   6.662975
    40  H    2.752456   3.152272   4.005587   4.532081   2.745388
                   21         22         23         24         25
    21  C    0.000000
    22  H    2.136016   0.000000
    23  C    1.406811   3.401926   0.000000
    24  H    3.398727   4.949472   2.153565   0.000000
    25  H    1.084020   2.459823   2.155435   4.294331   0.000000
    26  N    2.415121   4.548442   1.374378   2.652204   2.646336
    27  H    3.297491   5.399989   2.047730   2.424780   3.621069
    28  H    2.603171   4.675968   2.048304   3.625649   2.416920
    29  O    6.147621   5.129008   6.413526   6.089511   7.074242
    30  O    8.727240   7.666393   8.910340   8.290795   9.661827
    31  H    7.817595   6.867372   7.955630   7.319144   8.774857
    32  S   12.334052  10.632971  12.943118  12.860278  13.029149
    33  O   12.867500  11.239669  13.412918  13.221260  13.595611
    34  O   12.670152  10.820804  13.415475  13.553841  13.267034
    35  O   12.890381  11.277220  13.421939  13.207563  13.627196
    36  S    6.064512   3.930065   7.262823   8.431183   6.264609
    37  O    5.525123   3.478306   6.749580   8.033407   5.654233
    38  O    7.500755   5.365485   8.726981   9.907954   7.627290
    39  O    5.521250   3.477911   6.743754   8.027060   5.651115
    40  H    5.157182   4.292910   5.396072   5.146130   6.108445
                   26         27         28         29         30
    26  N    0.000000
    27  H    1.008134   0.000000
    28  H    1.008073   1.692525   0.000000
    29  O    7.756362   8.118127   8.423494   0.000000
    30  O   10.221933  10.490689  10.939728   2.587656   0.000000
    31  H    9.259444   9.519084   9.988878   1.738557   0.973352
    32  S   14.316087  14.792187  14.846307   6.773789   5.076253
    33  O   14.772950  15.231979  15.357702   7.187205   5.302108
    34  O   14.786385  15.338287  15.235068   7.545723   6.216238
    35  O   14.788689  15.196453  15.337438   7.175165   5.250436
    36  S    8.471230   9.291216   8.586027   5.216507   6.929013
    37  O    7.890984   8.767489   7.999666   5.495854   7.398553
    38  O    9.913866  10.749050   9.985574   6.271452   7.596158
    39  O    7.898499   8.697714   7.923361   5.498719   7.403034
    40  H    6.740345   7.116700   7.407246   1.017504   3.571220
                   31         32         33         34         35
    31  H    0.000000
    32  S    5.893138   0.000000
    33  O    6.161382   1.480754   0.000000
    34  O    6.934402   1.477810   2.469996   0.000000
    35  O    6.121056   1.480462   2.465144   2.470462   0.000000
    36  S    6.551309   7.906283   8.672623   7.674259   8.741497
    37  O    6.934150   8.721730   9.290456   8.552000   9.677286
    38  O    7.384856   7.583887   8.405459   7.085620   8.490272
    39  O    6.938534   8.725277   9.627125   8.534034   9.371062
    40  H    2.666496   7.722975   8.153054   8.419778   8.146961
                   36         37         38         39         40
    36  S    0.000000
    37  O    1.478259   0.000000
    38  O    1.479969   2.458347   0.000000
    39  O    1.478269   2.478623   2.458298   0.000000
    40  H    5.067471   5.201479   6.290304   5.203349   0.000000
 Stoichiometry    C16H11N3O8S2(2-)
 Framework group  C1[X(C16H11N3O8S2)]
 Deg. of freedom   114
 Full point group                 C1      NOp   1
 Largest Abelian subgroup         C1      NOp   1
 Largest concise Abelian subgroup C1      NOp   1
                         Standard orientation:                         
 ---------------------------------------------------------------------
 Center     Atomic      Atomic             Coordinates (Angstroms)
 Number     Number       Type             X           Y           Z
 ---------------------------------------------------------------------
      1          6           0        0.758581    0.268391    0.002828
      2          6           0       -0.030755   -0.881951    0.003792
      3          6           0       -1.453527   -0.812617    0.001349
      4          6           0       -2.062546    0.465921   -0.003950
      5          6           0       -1.245314    1.629395   -0.004227
      6          6           0        0.109084    1.541620   -0.000435
      7          6           0       -2.289790   -1.971536    0.003236
      8          6           0       -3.468536    0.577109   -0.008715
      9          1           0       -1.714555    2.603106   -0.007170
     10          6           0       -4.234057   -0.556108   -0.007729
     11          6           0       -3.655963   -1.833084   -0.001071
     12          1           0       -3.934794    1.552773   -0.014806
     13          1           0       -4.270238   -2.723998   -0.001782
     14          7           0        2.153487    0.245304    0.004006
     15          7           0        2.699098   -0.885582    0.004915
     16          6           0        4.102028   -0.932596    0.004909
     17          6           0        4.686054   -2.199408   -0.000050
     18          6           0        4.925527    0.198552    0.006772
     19          6           0        6.058477   -2.345070   -0.002569
     20          1           0        4.047376   -3.074838   -0.003651
     21          6           0        6.294865    0.057752    0.004883
     22          1           0        4.479741    1.183752    0.008597
     23          6           0        6.890091   -1.216920   -0.000815
     24          1           0        6.499616   -3.334783   -0.006192
     25          1           0        6.927275    0.938177    0.007777
     26          7           0        8.257400   -1.349327    0.042184
     27          1           0        8.650796   -2.237780   -0.226562
     28          1           0        8.814801   -0.553220   -0.225636
     29          8           0        0.537242   -2.097012    0.006674
     30          8           0       -1.790471   -3.227374    0.008394
     31          1           0       -0.817999   -3.186001    0.009545
     32         16           0       -6.029358   -0.434515   -0.002703
     33          8           0       -6.461677   -1.058520    1.268653
     34          8           0       -6.339296    1.008466   -0.077998
     35          8           0       -6.478787   -1.191733   -1.192830
     36         16           0        1.045539    3.094668    0.000929
     37          8           0        1.848480    3.095170    1.242111
     38          8           0        0.010254    4.152254   -0.001660
     39          8           0        1.854264    3.094892   -1.236505
     40          1           0        1.543811   -1.948243    0.006578
 ---------------------------------------------------------------------
 Rotational constants (GHZ):           0.2954410           0.0646991           0.0541898
 Standard basis: 6-311++G(d,p) (5D, 7F)
 There are   760 symmetry adapted cartesian basis functions of A   symmetry.
 There are   731 symmetry adapted basis functions of A   symmetry.
   731 basis functions,  1171 primitive gaussians,   760 cartesian basis functions
   113 alpha electrons      113 beta electrons
       nuclear repulsion energy      3041.9871035520 Hartrees.
 NAtoms=   40 NActive=   40 NUniq=   40 SFac= 1.00D+00 NAtFMM=   60 NAOKFM=F Big=F
 Integral buffers will be    131072 words long.
 Raffenetti 2 integral format.
 Two-electron integral symmetry is turned on.
 ------------------------------------------------------------------------------
 Polarizable Continuum Model (PCM)
 =================================
 Model                : PCM.
 Atomic radii         : UFF (Universal Force Field).
 Polarization charges : Total charges.
 Charge compensation  : None.
 Solution method      : On-the-fly selection.
 Cavity type          : Scaled VdW (van der Waals Surface) (Alpha=1.100).
 Cavity algorithm     : GePol (No added spheres)
                        Default sphere list used, NSphG=   40.
                        Lebedev-Laikov grids with approx.  5.0 points / Ang**2.
                        Smoothing algorithm: York/Karplus (Gamma=1.0000).
                        Polarization charges: spherical gaussians, with
                                              point-specific exponents (IZeta= 3).
                        Self-potential: point-specific (ISelfS= 7).
                        Self-field    : sphere-specific E.n sum rule (ISelfD= 2).
 1st derivatives      : Analytical E(r).r(x)/FMM algorithm (CHGder, D1EAlg=3).
                        Cavity 1st derivative terms included.
 Solvent              : Water, Eps=  78.355300 Eps(inf)=   1.777849
 ------------------------------------------------------------------------------
 One-electron integrals computed using PRISM.
 PrsmSu:  requested number of processors reduced to:  23 ShMem   1 Linda.
 NBasis=   731 RedAO= T EigKep=  1.27D-06  NBF=   731
 NBsUse=   721 1.00D-06 EigRej=  9.00D-07 NBFU=   721
 Initial guess from the checkpoint file:  "AV3_OH.chk"
 B after Tr=     0.000000    0.000000    0.000000
         Rot=    1.000000    0.000029   -0.000017   -0.000015 Ang=   0.00 deg.
 Requested convergence on RMS density matrix=1.00D-08 within 128 cycles.
 Requested convergence on MAX density matrix=1.00D-06.
 Requested convergence on             energy=1.00D-06.
 No special actions if energy rises.
 CoulSu:  requested number of processors reduced to:  32 ShMem   1 Linda.
 Inv3:  Mode=1 IEnd=    36352083.
 Iteration    1 A*A^-1 deviation from unit magnitude is 3.66D-15 for   2162.
 Iteration    1 A*A^-1 deviation from orthogonality  is 1.89D-15 for   2702    418.
 Iteration    1 A^-1*A deviation from unit magnitude is 3.44D-15 for   2162.
 Iteration    1 A^-1*A deviation from orthogonality  is 1.77D-15 for   2664   2546.
 CoulSu:  requested number of processors reduced to:  32 ShMem   1 Linda.
 CoulSu:  requested number of processors reduced to:  32 ShMem   1 Linda.
 Error on total polarization charges =  0.02664
 SCF Done:  E(RCAM-B3LYP) =  -2178.82689771     A.U. after    9 cycles
            NFock=  9  Conv=0.54D-08     -V/T= 2.0023
 PrsmSu:  requested number of processors reduced to:  25 ShMem   1 Linda.
 D1PCM: PCM CHGder 1st derivatives, ID1Alg=3 FixD1E=F DoIter=F DoCFld=F I1PDM=0.
 CoulSu:  requested number of processors reduced to:  34 ShMem   1 Linda.
 CoulSu:  requested number of processors reduced to:  34 ShMem   1 Linda.
 CoulSu:  requested number of processors reduced to:  25 ShMem   1 Linda.
 CoulSu:  requested number of processors reduced to:  26 ShMem   1 Linda.
 Calling FoFJK, ICntrl=      2127 FMM=F ISym2X=0 I1Cent= 0 IOpClX= 0 NMat=1 NMatS=1 NMatT=0.
 ***** Axes restored to original set *****
 -------------------------------------------------------------------
 Center     Atomic                   Forces (Hartrees/Bohr)
 Number     Number              X              Y              Z
 -------------------------------------------------------------------
      1        6          -0.000004025   -0.000019622   -0.000002558
      2        6          -0.000000718    0.000008422    0.000000927
      3        6           0.000005982    0.000009732   -0.000000296
      4        6           0.000005365    0.000001962   -0.000000516
      5        6          -0.000007262   -0.000004092   -0.000001687
      6        6           0.000002271    0.000000942    0.000000094
      7        6           0.000004318   -0.000002325   -0.000001844
      8        6           0.000007076   -0.000001489   -0.000010623
      9        1          -0.000000094   -0.000001339   -0.000000992
     10        6           0.000001663   -0.000003252    0.000009754
     11        6           0.000002903   -0.000002906    0.000003068
     12        1          -0.000001085    0.000000152    0.000003281
     13        1          -0.000001682   -0.000000957    0.000001729
     14        7           0.000008704   -0.000022111   -0.000001281
     15        7           0.000015008    0.000012895    0.000005726
     16        6          -0.000003270   -0.000001744   -0.000001161
     17        6          -0.000014733   -0.000000485    0.000002597
     18        6          -0.000009533    0.000009148   -0.000000361
     19        6           0.000004884    0.000004846    0.000000247
     20        1           0.000001755    0.000002692    0.000000665
     21        6           0.000013145   -0.000001361    0.000002050
     22        1           0.000001503   -0.000003718   -0.000002598
     23        6          -0.000014293    0.000008675   -0.000006480
     24        1           0.000000064    0.000000075    0.000001271
     25        1           0.000001682   -0.000000802   -0.000000323
     26        7           0.000010128   -0.000005104    0.000018963
     27        1           0.000000564    0.000001864   -0.000004223
     28        1           0.000000546    0.000001601   -0.000006333
     29        8          -0.000012226   -0.000000308    0.000001697
     30        8          -0.000022626   -0.000003546    0.000000366
     31        1           0.000008709    0.000006486    0.000001259
     32       16          -0.000000956    0.000000788    0.000003523
     33        8           0.000005480    0.000000373   -0.000006192
     34        8          -0.000000779   -0.000003586   -0.000005925
     35        8          -0.000003242    0.000000103    0.000000308
     36       16          -0.000002216   -0.000004442    0.000001438
     37        8          -0.000001945    0.000007374   -0.000004270
     38        8           0.000000618   -0.000000829   -0.000000122
     39        8           0.000001917   -0.000002114    0.000000810
     40        1          -0.000003599    0.000008006   -0.000001988
 -------------------------------------------------------------------
 Cartesian Forces:  Max     0.000022626 RMS     0.000006289

 GradGradGradGradGradGradGradGradGradGradGradGradGradGradGradGradGradGrad
 Berny optimization.
 Using GEDIIS/GDIIS optimizer.
 FormGI is forming the generalized inverse of G from B-inverse, IUseBI=4.
 Internal  Forces:  Max     0.000067313 RMS     0.000007662
 Search for a local minimum.
 Step number   4 out of a maximum of  212
 All quantities printed in internal units (Hartrees-Bohrs-Radians)
 Mixed Optimization -- En-DIIS/RFO-DIIS
 Swapping is turned off.
 Update second derivatives using D2CorX and points    1    2    3    4
 DE= -6.13D-08 DEPred=-5.84D-08 R= 1.05D+00
 Trust test= 1.05D+00 RLast= 1.76D-03 DXMaxT set to 1.50D-01
 ITU=  0  0 -1  0
     Eigenvalues ---    0.00382   0.00496   0.01386   0.01393   0.01540
     Eigenvalues ---    0.01680   0.01770   0.01816   0.01852   0.01910
     Eigenvalues ---    0.01973   0.02028   0.02033   0.02047   0.02066
     Eigenvalues ---    0.02084   0.02099   0.02143   0.02160   0.02178
     Eigenvalues ---    0.02193   0.02212   0.02226   0.02233   0.02250
     Eigenvalues ---    0.02273   0.02289   0.02315   0.02332   0.02358
     Eigenvalues ---    0.02452   0.02594   0.05579   0.12413   0.12525
     Eigenvalues ---    0.12574   0.12711   0.15919   0.16000   0.16000
     Eigenvalues ---    0.16000   0.16000   0.16000   0.16000   0.16000
     Eigenvalues ---    0.16001   0.16152   0.16427   0.21935   0.22911
     Eigenvalues ---    0.23321   0.23472   0.23687   0.23900   0.24002
     Eigenvalues ---    0.24980   0.24999   0.25000   0.25000   0.25000
     Eigenvalues ---    0.25000   0.25000   0.25000   0.25000   0.25000
     Eigenvalues ---    0.25000   0.25000   0.25000   0.25000   0.25078
     Eigenvalues ---    0.26159   0.26896   0.29689   0.35440   0.35517
     Eigenvalues ---    0.35565   0.35725   0.35737   0.35841   0.35922
     Eigenvalues ---    0.36111   0.39347   0.39504   0.40101   0.40993
     Eigenvalues ---    0.41657   0.42436   0.42731   0.42974   0.44669
     Eigenvalues ---    0.44743   0.45569   0.45790   0.46206   0.46268
     Eigenvalues ---    0.46328   0.47102   0.47592   0.48992   0.49474
     Eigenvalues ---    0.49795   0.50465   0.52125   0.52612   0.54789
     Eigenvalues ---    0.56079   0.80626   0.83185   0.83529   0.83641
     Eigenvalues ---    0.84292   0.84380   0.84535   0.88344
 En-DIIS/RFO-DIIS/Sim-DIIS IScMMF=       -3 using points:     4    3    2    1
 RFO step:  Lambda=-3.74295153D-08.
 DIIS inversion failure, remove point   4.
 DIIS inversion failure, remove point   3.
 RFO-DIIS uses    2 points instead of    4
 DidBck=T Rises=F RFO-DIIS coefs:    0.75578    0.24422    0.00000    0.00000
 Iteration  1 RMS(Cart)=  0.00033667 RMS(Int)=  0.00000002
 Iteration  2 RMS(Cart)=  0.00000004 RMS(Int)=  0.00000001
 Variable       Old X    -DE/DX   Delta X   Delta X   Delta X     New X
                                 (Linear)    (Quad)   (Total)
    R1        2.63638  -0.00000  -0.00000   0.00002   0.00002   2.63640
    R2        2.70103   0.00000  -0.00001   0.00002   0.00001   2.70104
    R3        2.63635   0.00002  -0.00000   0.00005   0.00005   2.63640
    R4        2.69184  -0.00000   0.00001  -0.00003  -0.00002   2.69183
    R5        2.53463  -0.00001  -0.00000   0.00001   0.00001   2.53464
    R6        2.67621  -0.00001   0.00001  -0.00003  -0.00002   2.67619
    R7        2.70068   0.00001   0.00001  -0.00000   0.00001   2.70068
    R8        2.68683  -0.00001   0.00001  -0.00004  -0.00003   2.68680
    R9        2.66525  -0.00000   0.00000   0.00001   0.00001   2.66525
   R10        2.56482  -0.00000  -0.00000   0.00000   0.00000   2.56482
   R11        2.04257  -0.00000  -0.00000   0.00000   0.00000   2.04258
   R12        3.42708  -0.00000  -0.00000   0.00001   0.00001   3.42709
   R13        2.59493  -0.00001   0.00000  -0.00002  -0.00002   2.59491
   R14        2.55391  -0.00001   0.00000  -0.00001  -0.00001   2.55390
   R15        2.58430   0.00000  -0.00000  -0.00001  -0.00001   2.58429
   R16        2.04349   0.00000  -0.00000  -0.00000  -0.00000   2.04349
   R17        2.64892  -0.00001   0.00000   0.00000   0.00000   2.64893
   R18        3.40041  -0.00000   0.00000  -0.00001  -0.00000   3.40041
   R19        2.04498   0.00000  -0.00000   0.00000   0.00000   2.04498
   R20        2.37279  -0.00002   0.00000  -0.00001  -0.00001   2.37278
   R21        2.65264  -0.00001  -0.00000   0.00002   0.00001   2.65265
   R22        2.63610  -0.00001   0.00000  -0.00001  -0.00001   2.63609
   R23        2.64403   0.00001  -0.00000   0.00001   0.00001   2.64403
   R24        2.60807   0.00001  -0.00000   0.00001   0.00001   2.60808
   R25        2.04780  -0.00000   0.00000  -0.00000  -0.00000   2.04780
   R26        2.60132   0.00001  -0.00000   0.00002   0.00001   2.60133
   R27        2.04348  -0.00000   0.00001  -0.00002  -0.00001   2.04347
   R28        2.64852   0.00000   0.00000  -0.00001  -0.00001   2.64851
   R29        2.04767   0.00000  -0.00000  -0.00000  -0.00000   2.04767
   R30        2.65849  -0.00001   0.00000  -0.00002  -0.00002   2.65847
   R31        2.04850   0.00000  -0.00000   0.00000   0.00000   2.04850
   R32        2.59720   0.00001  -0.00000   0.00006   0.00006   2.59726
   R33        1.90510   0.00000   0.00000   0.00001   0.00001   1.90511
   R34        1.90498   0.00000  -0.00000   0.00001   0.00001   1.90499
   R35        1.92280  -0.00000   0.00000  -0.00010  -0.00010   1.92270
   R36        1.83937   0.00001  -0.00000  -0.00001  -0.00001   1.83936
   R37        2.79822  -0.00001   0.00000  -0.00000  -0.00000   2.79822
   R38        2.79266  -0.00000   0.00000  -0.00000   0.00000   2.79266
   R39        2.79767   0.00000  -0.00000   0.00000   0.00000   2.79767
   R40        2.79350  -0.00000   0.00000  -0.00001  -0.00001   2.79350
   R41        2.79674  -0.00000   0.00000  -0.00000  -0.00000   2.79673
   R42        2.79352  -0.00000   0.00000   0.00000   0.00000   2.79352
    A1        2.06850  -0.00001   0.00001  -0.00005  -0.00004   2.06846
    A2        2.15563   0.00004   0.00000   0.00010   0.00010   2.15573
    A3        2.05906  -0.00003  -0.00001  -0.00005  -0.00006   2.05900
    A4        2.12349   0.00000  -0.00000   0.00001   0.00001   2.12350
    A5        2.10292   0.00000  -0.00002   0.00009   0.00007   2.10300
    A6        2.05677  -0.00001   0.00002  -0.00010  -0.00008   2.05669
    A7        2.06403   0.00000  -0.00001   0.00002   0.00002   2.06405
    A8        2.14717   0.00000   0.00001  -0.00002  -0.00000   2.14716
    A9        2.07198  -0.00000  -0.00000  -0.00001  -0.00001   2.07197
   A10        2.08471   0.00000   0.00000  -0.00001  -0.00001   2.08470
   A11        2.09426   0.00000   0.00000   0.00000   0.00000   2.09427
   A12        2.10421  -0.00000  -0.00001   0.00001   0.00000   2.10422
   A13        2.11842  -0.00000  -0.00000  -0.00000  -0.00000   2.11841
   A14        2.08018  -0.00000   0.00000  -0.00000   0.00000   2.08018
   A15        2.08459   0.00000  -0.00000   0.00000   0.00000   2.08459
   A16        2.10723   0.00001  -0.00000   0.00003   0.00002   2.10725
   A17        2.12727   0.00000  -0.00002   0.00004   0.00002   2.12730
   A18        2.04869  -0.00001   0.00002  -0.00007  -0.00005   2.04864
   A19        2.09486   0.00000  -0.00000   0.00002   0.00001   2.09487
   A20        2.13809   0.00001   0.00001  -0.00001  -0.00001   2.13808
   A21        2.05024  -0.00001  -0.00001  -0.00000  -0.00001   2.05023
   A22        2.08599   0.00000  -0.00000   0.00000   0.00000   2.08599
   A23        2.09552  -0.00000  -0.00000  -0.00001  -0.00001   2.09552
   A24        2.10167  -0.00000   0.00000   0.00001   0.00001   2.10168
   A25        2.12238   0.00000  -0.00000  -0.00000  -0.00000   2.12237
   A26        2.09728   0.00000  -0.00000   0.00001   0.00001   2.09729
   A27        2.06350  -0.00000   0.00000  -0.00001  -0.00001   2.06349
   A28        2.09690  -0.00000   0.00000  -0.00001  -0.00001   2.09690
   A29        2.07343   0.00000  -0.00000   0.00001   0.00001   2.07344
   A30        2.11284  -0.00000  -0.00000   0.00000  -0.00000   2.11284
   A31        2.03687   0.00007   0.00001   0.00013   0.00014   2.03701
   A32        2.05382  -0.00003  -0.00003  -0.00000  -0.00003   2.05379
   A33        2.03627  -0.00000   0.00001  -0.00004  -0.00003   2.03624
   A34        2.16658  -0.00000  -0.00001   0.00004   0.00003   2.16661
   A35        2.08033   0.00000   0.00000  -0.00000  -0.00000   2.08033
   A36        2.10852  -0.00000   0.00000  -0.00000  -0.00000   2.10851
   A37        2.07933   0.00000   0.00000  -0.00001  -0.00000   2.07932
   A38        2.09534   0.00000  -0.00000   0.00001   0.00001   2.09535
   A39        2.09762  -0.00000  -0.00000   0.00000   0.00000   2.09762
   A40        2.08739   0.00000  -0.00000   0.00001   0.00001   2.08740
   A41        2.09818   0.00000   0.00000  -0.00001  -0.00001   2.09817
   A42        2.10028   0.00000  -0.00000   0.00001   0.00000   2.10028
   A43        2.09583  -0.00000   0.00000  -0.00001  -0.00001   2.09582
   A44        2.08708  -0.00000   0.00000   0.00000   0.00000   2.08708
   A45        2.11013  -0.00000   0.00000  -0.00001  -0.00001   2.11013
   A46        2.09123   0.00000  -0.00000   0.00001   0.00001   2.09124
   A47        2.08182  -0.00000   0.00000  -0.00000  -0.00000   2.08182
   A48        2.06950   0.00000   0.00000   0.00000   0.00001   2.06950
   A49        2.10924  -0.00000   0.00000  -0.00000  -0.00000   2.10924
   A50        2.10376   0.00000  -0.00000  -0.00001  -0.00001   2.10376
   A51        2.05418  -0.00000   0.00001  -0.00012  -0.00011   2.05407
   A52        2.05522  -0.00000   0.00001  -0.00012  -0.00012   2.05510
   A53        1.99258  -0.00000   0.00001  -0.00014  -0.00013   1.99245
   A54        1.86134  -0.00002  -0.00002   0.00003   0.00001   1.86135
   A55        1.90671  -0.00001   0.00001  -0.00006  -0.00005   1.90667
   A56        1.83922  -0.00001   0.00001  -0.00003  -0.00002   1.83920
   A57        1.84948   0.00000  -0.00000   0.00001   0.00001   1.84949
   A58        1.84011   0.00001  -0.00000   0.00002   0.00001   1.84013
   A59        1.97577   0.00000  -0.00000   0.00002   0.00001   1.97578
   A60        1.96713  -0.00000   0.00000  -0.00001  -0.00001   1.96712
   A61        1.97664  -0.00001   0.00000  -0.00001  -0.00001   1.97663
   A62        1.85605   0.00001  -0.00001   0.00006   0.00004   1.85609
   A63        1.82424  -0.00000   0.00001  -0.00005  -0.00003   1.82421
   A64        1.85667  -0.00000  -0.00002   0.00004   0.00003   1.85670
   A65        1.96188  -0.00001   0.00002  -0.00006  -0.00004   1.96184
   A66        1.98852  -0.00000  -0.00001   0.00004   0.00003   1.98855
   A67        1.96181   0.00000   0.00001  -0.00003  -0.00002   1.96179
    D1        0.00022   0.00000   0.00000   0.00004   0.00004   0.00026
    D2        3.14146  -0.00000  -0.00001   0.00003   0.00002   3.14148
    D3       -3.14062   0.00000   0.00002   0.00003   0.00005  -3.14057
    D4        0.00062   0.00000   0.00001   0.00002   0.00003   0.00064
    D5       -0.00144  -0.00000   0.00000  -0.00004  -0.00004  -0.00148
    D6        3.13974  -0.00000   0.00000  -0.00003  -0.00003   3.13971
    D7        3.13944  -0.00000  -0.00002  -0.00003  -0.00005   3.13939
    D8       -0.00256  -0.00000  -0.00001  -0.00002  -0.00003  -0.00260
    D9        0.00100  -0.00000  -0.00003  -0.00008  -0.00011   0.00089
   D10       -3.13984  -0.00000  -0.00001  -0.00010  -0.00010  -3.13995
   D11        0.00146   0.00000  -0.00000  -0.00001  -0.00001   0.00144
   D12       -3.14077   0.00000  -0.00001  -0.00002  -0.00004  -3.14081
   D13       -3.13979   0.00000   0.00001   0.00000   0.00001  -3.13978
   D14        0.00117   0.00000  -0.00001  -0.00001  -0.00001   0.00115
   D15       -0.00120  -0.00000   0.00002  -0.00013  -0.00012  -0.00132
   D16        3.14005  -0.00000   0.00001  -0.00014  -0.00014   3.13991
   D17       -0.00195  -0.00000   0.00000  -0.00002  -0.00002  -0.00197
   D18        3.13979  -0.00000  -0.00000  -0.00001  -0.00001   3.13978
   D19        3.14025  -0.00000   0.00001  -0.00001   0.00000   3.14025
   D20       -0.00120  -0.00000   0.00001   0.00000   0.00001  -0.00118
   D21       -3.14011  -0.00000   0.00002  -0.00005  -0.00002  -3.14013
   D22        0.00078  -0.00000   0.00001   0.00003   0.00003   0.00081
   D23        0.00084  -0.00000   0.00001  -0.00006  -0.00005   0.00079
   D24       -3.14145  -0.00000  -0.00000   0.00001   0.00001  -3.14144
   D25        0.00079  -0.00000  -0.00000   0.00002   0.00002   0.00082
   D26       -3.14042   0.00000  -0.00000   0.00004   0.00004  -3.14038
   D27       -3.14095  -0.00000   0.00000   0.00001   0.00001  -3.14093
   D28        0.00103   0.00000   0.00000   0.00002   0.00003   0.00106
   D29        0.00037   0.00000  -0.00002   0.00005   0.00003   0.00040
   D30       -3.13941  -0.00000   0.00001  -0.00006  -0.00005  -3.13946
   D31       -3.14107   0.00000  -0.00003   0.00007   0.00004  -3.14103
   D32        0.00233  -0.00000   0.00000  -0.00005  -0.00004   0.00229
   D33        0.00094   0.00000   0.00000   0.00001   0.00001   0.00095
   D34       -3.14026   0.00000  -0.00000  -0.00000  -0.00000  -3.14026
   D35       -3.14104   0.00000   0.00000  -0.00001  -0.00001  -3.14104
   D36        0.00095   0.00000  -0.00000  -0.00002  -0.00002   0.00093
   D37       -1.06179  -0.00000  -0.00014  -0.00020  -0.00034  -1.06212
   D38       -3.14044  -0.00000  -0.00016  -0.00014  -0.00030  -3.14073
   D39        1.06389  -0.00000  -0.00017  -0.00010  -0.00027   1.06362
   D40        2.07941  -0.00000  -0.00013  -0.00019  -0.00032   2.07908
   D41        0.00076  -0.00000  -0.00015  -0.00013  -0.00028   0.00047
   D42       -2.07810  -0.00000  -0.00017  -0.00009  -0.00026  -2.07836
   D43        0.00033   0.00000  -0.00002   0.00006   0.00004   0.00037
   D44        3.13923   0.00000  -0.00001   0.00001   0.00000   3.13923
   D45       -3.14059   0.00000  -0.00000  -0.00001  -0.00001  -3.14060
   D46       -0.00170   0.00000   0.00001  -0.00006  -0.00005  -0.00174
   D47       -0.00095  -0.00000   0.00001  -0.00009  -0.00008  -0.00102
   D48        3.13996   0.00000  -0.00001  -0.00002  -0.00002   3.13994
   D49        0.00084  -0.00000   0.00001  -0.00005  -0.00004   0.00080
   D50        3.13449   0.00000  -0.00000   0.00000   0.00000   3.13450
   D51        3.14062   0.00000  -0.00002   0.00006   0.00005   3.14066
   D52       -0.00892   0.00000  -0.00003   0.00012   0.00009  -0.00883
   D53       -0.00121  -0.00000   0.00001  -0.00000   0.00000  -0.00120
   D54       -3.14004   0.00000  -0.00000   0.00004   0.00004  -3.14000
   D55       -3.13500  -0.00000   0.00002  -0.00006  -0.00004  -3.13504
   D56        0.00935  -0.00000   0.00001  -0.00001  -0.00000   0.00934
   D57       -2.04409  -0.00000  -0.00005   0.00016   0.00011  -2.04398
   D58        0.05461   0.00000  -0.00005   0.00017   0.00012   0.05473
   D59        2.15475   0.00000  -0.00005   0.00017   0.00013   2.15488
   D60        1.08982   0.00000  -0.00006   0.00021   0.00016   1.08998
   D61       -3.09466   0.00000  -0.00006   0.00023   0.00016  -3.09450
   D62       -0.99452   0.00000  -0.00006   0.00023   0.00017  -0.99435
   D63        3.14063  -0.00001  -0.00009   0.00004  -0.00005   3.14058
   D64       -3.13680  -0.00000  -0.00003   0.00006   0.00003  -3.13677
   D65        0.00243  -0.00000  -0.00003   0.00004   0.00002   0.00245
   D66        3.13981  -0.00000   0.00001  -0.00003  -0.00002   3.13979
   D67        0.00004  -0.00000  -0.00000   0.00001   0.00001   0.00005
   D68        0.00046   0.00000   0.00001  -0.00001  -0.00001   0.00045
   D69       -3.13931   0.00000  -0.00000   0.00002   0.00002  -3.13929
   D70       -3.14014   0.00000  -0.00000  -0.00000  -0.00001  -3.14014
   D71        0.00028  -0.00000  -0.00000   0.00000  -0.00000   0.00027
   D72       -0.00097  -0.00000   0.00000  -0.00002  -0.00002  -0.00099
   D73        3.13945  -0.00000  -0.00000  -0.00002  -0.00002   3.13943
   D74       -0.00053   0.00000  -0.00001   0.00003   0.00002  -0.00051
   D75        3.14135   0.00000  -0.00001   0.00002   0.00001   3.14136
   D76        3.13922  -0.00000   0.00000  -0.00001  -0.00000   3.13921
   D77       -0.00209  -0.00000   0.00000  -0.00002  -0.00001  -0.00210
   D78        0.00156   0.00000  -0.00001   0.00004   0.00003   0.00159
   D79       -3.14007   0.00000  -0.00000   0.00002   0.00002  -3.14005
   D80       -3.13885   0.00000  -0.00000   0.00003   0.00003  -3.13882
   D81        0.00271   0.00000   0.00000   0.00001   0.00001   0.00272
   D82        0.00108  -0.00000   0.00000  -0.00001  -0.00001   0.00107
   D83        3.10304  -0.00000   0.00001  -0.00006  -0.00006   3.10299
   D84       -3.14080  -0.00000   0.00000  -0.00000  -0.00000  -3.14080
   D85       -0.03884  -0.00000   0.00000  -0.00005  -0.00005  -0.03888
   D86       -0.00160  -0.00000   0.00000  -0.00002  -0.00002  -0.00162
   D87       -3.10369   0.00000   0.00000   0.00003   0.00003  -3.10366
   D88        3.14002   0.00000  -0.00000  -0.00000  -0.00000   3.14002
   D89        0.03793   0.00000  -0.00000   0.00005   0.00004   0.03798
   D90        0.34049   0.00000  -0.00002   0.00032   0.00030   0.34079
   D91        2.83644  -0.00000   0.00002  -0.00033  -0.00031   2.83613
   D92       -2.84151   0.00000  -0.00001   0.00026   0.00025  -2.84126
   D93       -0.34556  -0.00001   0.00002  -0.00038  -0.00036  -0.34592
         Item               Value     Threshold  Converged?
 Maximum Force            0.000067     0.000450     YES
 RMS     Force            0.000008     0.000300     YES
 Maximum Displacement     0.001098     0.001800     YES
 RMS     Displacement     0.000337     0.001200     YES
 Predicted change in Energy=-1.871325D-08
 Optimization completed.
    -- Stationary point found.
                           ----------------------------
                           !   Optimized Parameters   !
                           ! (Angstroms and Degrees)  !
 --------------------------                            --------------------------
 ! Name  Definition              Value          Derivative Info.                !
 --------------------------------------------------------------------------------
 ! R1    R(1,2)                  1.3951         -DE/DX =    0.0                 !
 ! R2    R(1,6)                  1.4293         -DE/DX =    0.0                 !
 ! R3    R(1,14)                 1.3951         -DE/DX =    0.0                 !
 ! R4    R(2,3)                  1.4245         -DE/DX =    0.0                 !
 ! R5    R(2,29)                 1.3413         -DE/DX =    0.0                 !
 ! R6    R(3,4)                  1.4162         -DE/DX =    0.0                 !
 ! R7    R(3,7)                  1.4291         -DE/DX =    0.0                 !
 ! R8    R(4,5)                  1.4218         -DE/DX =    0.0                 !
 ! R9    R(4,8)                  1.4104         -DE/DX =    0.0                 !
 ! R10   R(5,6)                  1.3572         -DE/DX =    0.0                 !
 ! R11   R(5,9)                  1.0809         -DE/DX =    0.0                 !
 ! R12   R(6,36)                 1.8135         -DE/DX =    0.0                 !
 ! R13   R(7,11)                 1.3732         -DE/DX =    0.0                 !
 ! R14   R(7,30)                 1.3515         -DE/DX =    0.0                 !
 ! R15   R(8,10)                 1.3676         -DE/DX =    0.0                 !
 ! R16   R(8,12)                 1.0814         -DE/DX =    0.0                 !
 ! R17   R(10,11)                1.4018         -DE/DX =    0.0                 !
 ! R18   R(10,32)                1.7994         -DE/DX =    0.0                 !
 ! R19   R(11,13)                1.0822         -DE/DX =    0.0                 !
 ! R20   R(14,15)                1.2556         -DE/DX =    0.0                 !
 ! R21   R(15,16)                1.4037         -DE/DX =    0.0                 !
 ! R22   R(16,17)                1.395          -DE/DX =    0.0                 !
 ! R23   R(16,18)                1.3992         -DE/DX =    0.0                 !
 ! R24   R(17,19)                1.3801         -DE/DX =    0.0                 !
 ! R25   R(17,20)                1.0837         -DE/DX =    0.0                 !
 ! R26   R(18,21)                1.3766         -DE/DX =    0.0                 !
 ! R27   R(18,22)                1.0814         -DE/DX =    0.0                 !
 ! R28   R(19,23)                1.4015         -DE/DX =    0.0                 !
 ! R29   R(19,24)                1.0836         -DE/DX =    0.0                 !
 ! R30   R(21,23)                1.4068         -DE/DX =    0.0                 !
 ! R31   R(21,25)                1.084          -DE/DX =    0.0                 !
 ! R32   R(23,26)                1.3744         -DE/DX =    0.0                 !
 ! R33   R(26,27)                1.0081         -DE/DX =    0.0                 !
 ! R34   R(26,28)                1.0081         -DE/DX =    0.0                 !
 ! R35   R(29,40)                1.0175         -DE/DX =    0.0                 !
 ! R36   R(30,31)                0.9734         -DE/DX =    0.0                 !
 ! R37   R(32,33)                1.4808         -DE/DX =    0.0                 !
 ! R38   R(32,34)                1.4778         -DE/DX =    0.0                 !
 ! R39   R(32,35)                1.4805         -DE/DX =    0.0                 !
 ! R40   R(36,37)                1.4783         -DE/DX =    0.0                 !
 ! R41   R(36,38)                1.48           -DE/DX =    0.0                 !
 ! R42   R(36,39)                1.4783         -DE/DX =    0.0                 !
 ! A1    A(2,1,6)              118.5161         -DE/DX =    0.0                 !
 ! A2    A(2,1,14)             123.5087         -DE/DX =    0.0                 !
 ! A3    A(6,1,14)             117.9752         -DE/DX =    0.0                 !
 ! A4    A(1,2,3)              121.6669         -DE/DX =    0.0                 !
 ! A5    A(1,2,29)             120.4887         -DE/DX =    0.0                 !
 ! A6    A(3,2,29)             117.8444         -DE/DX =    0.0                 !
 ! A7    A(2,3,4)              118.2604         -DE/DX =    0.0                 !
 ! A8    A(2,3,7)              123.0236         -DE/DX =    0.0                 !
 ! A9    A(4,3,7)              118.7159         -DE/DX =    0.0                 !
 ! A10   A(3,4,5)              119.445          -DE/DX =    0.0                 !
 ! A11   A(3,4,8)              119.9924         -DE/DX =    0.0                 !
 ! A12   A(5,4,8)              120.5626         -DE/DX =    0.0                 !
 ! A13   A(4,5,6)              121.3763         -DE/DX =    0.0                 !
 ! A14   A(4,5,9)              119.1856         -DE/DX =    0.0                 !
 ! A15   A(6,5,9)              119.4381         -DE/DX =    0.0                 !
 ! A16   A(1,6,5)              120.7351         -DE/DX =    0.0                 !
 ! A17   A(1,6,36)             121.8838         -DE/DX =    0.0                 !
 ! A18   A(5,6,36)             117.3811         -DE/DX =    0.0                 !
 ! A19   A(3,7,11)             120.0266         -DE/DX =    0.0                 !
 ! A20   A(3,7,30)             122.5036         -DE/DX =    0.0                 !
 ! A21   A(11,7,30)            117.4698         -DE/DX =    0.0                 !
 ! A22   A(4,8,10)             119.5182         -DE/DX =    0.0                 !
 ! A23   A(4,8,12)             120.0647         -DE/DX =    0.0                 !
 ! A24   A(10,8,12)            120.417          -DE/DX =    0.0                 !
 ! A25   A(8,10,11)            121.6032         -DE/DX =    0.0                 !
 ! A26   A(8,10,32)            120.1655         -DE/DX =    0.0                 !
 ! A27   A(11,10,32)           118.2298         -DE/DX =    0.0                 !
 ! A28   A(7,11,10)            120.1437         -DE/DX =    0.0                 !
 ! A29   A(7,11,13)            118.7991         -DE/DX =    0.0                 !
 ! A30   A(10,11,13)           121.0571         -DE/DX =    0.0                 !
 ! A31   A(1,14,15)            116.7039         -DE/DX =    0.0001              !
 ! A32   A(14,15,16)           117.675          -DE/DX =    0.0                 !
 ! A33   A(15,16,17)           116.6698         -DE/DX =    0.0                 !
 ! A34   A(15,16,18)           124.1361         -DE/DX =    0.0                 !
 ! A35   A(17,16,18)           119.194          -DE/DX =    0.0                 !
 ! A36   A(16,17,19)           120.8092         -DE/DX =    0.0                 !
 ! A37   A(16,17,20)           119.1368         -DE/DX =    0.0                 !
 ! A38   A(19,17,20)           120.0539         -DE/DX =    0.0                 !
 ! A39   A(16,18,21)           120.1846         -DE/DX =    0.0                 !
 ! A40   A(16,18,22)           119.5987         -DE/DX =    0.0                 !
 ! A41   A(21,18,22)           120.2167         -DE/DX =    0.0                 !
 ! A42   A(17,19,23)           120.3371         -DE/DX =    0.0                 !
 ! A43   A(17,19,24)           120.0822         -DE/DX =    0.0                 !
 ! A44   A(23,19,24)           119.5807         -DE/DX =    0.0                 !
 ! A45   A(18,21,23)           120.9016         -DE/DX =    0.0                 !
 ! A46   A(18,21,25)           119.8186         -DE/DX =    0.0                 !
 ! A47   A(23,21,25)           119.2797         -DE/DX =    0.0                 !
 ! A48   A(19,23,21)           118.5734         -DE/DX =    0.0                 !
 ! A49   A(19,23,26)           120.8504         -DE/DX =    0.0                 !
 ! A50   A(21,23,26)           120.5367         -DE/DX =    0.0                 !
 ! A51   A(23,26,27)           117.6958         -DE/DX =    0.0                 !
 ! A52   A(23,26,28)           117.7554         -DE/DX =    0.0                 !
 ! A53   A(27,26,28)           114.1664         -DE/DX =    0.0                 !
 ! A54   A(2,29,40)            106.647          -DE/DX =    0.0                 !
 ! A55   A(7,30,31)            109.2466         -DE/DX =    0.0                 !
 ! A56   A(10,32,33)           105.3796         -DE/DX =    0.0                 !
 ! A57   A(10,32,34)           105.9672         -DE/DX =    0.0                 !
 ! A58   A(10,32,35)           105.4306         -DE/DX =    0.0                 !
 ! A59   A(33,32,34)           113.2031         -DE/DX =    0.0                 !
 ! A60   A(33,32,35)           112.7081         -DE/DX =    0.0                 !
 ! A61   A(34,32,35)           113.2531         -DE/DX =    0.0                 !
 ! A62   A(6,36,37)            106.3436         -DE/DX =    0.0                 !
 ! A63   A(6,36,38)            104.5213         -DE/DX =    0.0                 !
 ! A64   A(6,36,39)            106.3792         -DE/DX =    0.0                 !
 ! A65   A(37,36,38)           112.4073         -DE/DX =    0.0                 !
 ! A66   A(37,36,39)           113.9339         -DE/DX =    0.0                 !
 ! A67   A(38,36,39)           112.4034         -DE/DX =    0.0                 !
 ! D1    D(6,1,2,3)              0.0125         -DE/DX =    0.0                 !
 ! D2    D(6,1,2,29)           179.9922         -DE/DX =    0.0                 !
 ! D3    D(14,1,2,3)          -179.9444         -DE/DX =    0.0                 !
 ! D4    D(14,1,2,29)            0.0353         -DE/DX =    0.0                 !
 ! D5    D(2,1,6,5)             -0.0825         -DE/DX =    0.0                 !
 ! D6    D(2,1,6,36)           179.8939         -DE/DX =    0.0                 !
 ! D7    D(14,1,6,5)           179.8768         -DE/DX =    0.0                 !
 ! D8    D(14,1,6,36)           -0.1468         -DE/DX =    0.0                 !
 ! D9    D(2,1,14,15)            0.0574         -DE/DX =    0.0                 !
 ! D10   D(6,1,14,15)         -179.8997         -DE/DX =    0.0                 !
 ! D11   D(1,2,3,4)              0.0834         -DE/DX =    0.0                 !
 ! D12   D(1,2,3,7)           -179.9531         -DE/DX =    0.0                 !
 ! D13   D(29,2,3,4)          -179.8967         -DE/DX =    0.0                 !
 ! D14   D(29,2,3,7)             0.0668         -DE/DX =    0.0                 !
 ! D15   D(1,2,29,40)           -0.069          -DE/DX =    0.0                 !
 ! D16   D(3,2,29,40)          179.9114         -DE/DX =    0.0                 !
 ! D17   D(2,3,4,5)             -0.1119         -DE/DX =    0.0                 !
 ! D18   D(2,3,4,8)            179.8965         -DE/DX =    0.0                 !
 ! D19   D(7,3,4,5)            179.923          -DE/DX =    0.0                 !
 ! D20   D(7,3,4,8)             -0.0686         -DE/DX =    0.0                 !
 ! D21   D(2,3,7,11)          -179.9151         -DE/DX =    0.0                 !
 ! D22   D(2,3,7,30)             0.0447         -DE/DX =    0.0                 !
 ! D23   D(4,3,7,11)             0.0483         -DE/DX =    0.0                 !
 ! D24   D(4,3,7,30)          -179.9919         -DE/DX =    0.0                 !
 ! D25   D(3,4,5,6)              0.0455         -DE/DX =    0.0                 !
 ! D26   D(3,4,5,9)           -179.9325         -DE/DX =    0.0                 !
 ! D27   D(8,4,5,6)           -179.9629         -DE/DX =    0.0                 !
 ! D28   D(8,4,5,9)              0.059          -DE/DX =    0.0                 !
 ! D29   D(3,4,8,10)             0.0213         -DE/DX =    0.0                 !
 ! D30   D(3,4,8,12)          -179.875          -DE/DX =    0.0                 !
 ! D31   D(5,4,8,10)          -179.9702         -DE/DX =    0.0                 !
 ! D32   D(5,4,8,12)             0.1335         -DE/DX =    0.0                 !
 ! D33   D(4,5,6,1)              0.0538         -DE/DX =    0.0                 !
 ! D34   D(4,5,6,36)          -179.9237         -DE/DX =    0.0                 !
 ! D35   D(9,5,6,1)           -179.9682         -DE/DX =    0.0                 !
 ! D36   D(9,5,6,36)             0.0544         -DE/DX =    0.0                 !
 ! D37   D(1,6,36,37)          -60.8359         -DE/DX =    0.0                 !
 ! D38   D(1,6,36,38)         -179.9338         -DE/DX =    0.0                 !
 ! D39   D(1,6,36,39)           60.9563         -DE/DX =    0.0                 !
 ! D40   D(5,6,36,37)          119.1413         -DE/DX =    0.0                 !
 ! D41   D(5,6,36,38)            0.0433         -DE/DX =    0.0                 !
 ! D42   D(5,6,36,39)         -119.0665         -DE/DX =    0.0                 !
 ! D43   D(3,7,11,10)            0.0191         -DE/DX =    0.0                 !
 ! D44   D(3,7,11,13)          179.8646         -DE/DX =    0.0                 !
 ! D45   D(30,7,11,10)        -179.9427         -DE/DX =    0.0                 !
 ! D46   D(30,7,11,13)          -0.0971         -DE/DX =    0.0                 !
 ! D47   D(3,7,30,31)           -0.0542         -DE/DX =    0.0                 !
 ! D48   D(11,7,30,31)         179.9066         -DE/DX =    0.0                 !
 ! D49   D(4,8,10,11)            0.0482         -DE/DX =    0.0                 !
 ! D50   D(4,8,10,32)          179.5931         -DE/DX =    0.0                 !
 ! D51   D(12,8,10,11)         179.9441         -DE/DX =    0.0                 !
 ! D52   D(12,8,10,32)          -0.511          -DE/DX =    0.0                 !
 ! D53   D(8,10,11,7)           -0.0691         -DE/DX =    0.0                 !
 ! D54   D(8,10,11,13)        -179.9111         -DE/DX =    0.0                 !
 ! D55   D(32,10,11,7)        -179.6225         -DE/DX =    0.0                 !
 ! D56   D(32,10,11,13)          0.5355         -DE/DX =    0.0                 !
 ! D57   D(8,10,32,33)        -117.1179         -DE/DX =    0.0                 !
 ! D58   D(8,10,32,34)           3.1289         -DE/DX =    0.0                 !
 ! D59   D(8,10,32,35)         123.4581         -DE/DX =    0.0                 !
 ! D60   D(11,10,32,33)         62.4422         -DE/DX =    0.0                 !
 ! D61   D(11,10,32,34)       -177.3111         -DE/DX =    0.0                 !
 ! D62   D(11,10,32,35)        -56.9819         -DE/DX =    0.0                 !
 ! D63   D(1,14,15,16)         179.9447         -DE/DX =    0.0                 !
 ! D64   D(14,15,16,17)       -179.7252         -DE/DX =    0.0                 !
 ! D65   D(14,15,16,18)          0.1393         -DE/DX =    0.0                 !
 ! D66   D(15,16,17,19)        179.8977         -DE/DX =    0.0                 !
 ! D67   D(15,16,17,20)          0.0024         -DE/DX =    0.0                 !
 ! D68   D(18,16,17,19)          0.0262         -DE/DX =    0.0                 !
 ! D69   D(18,16,17,20)       -179.8691         -DE/DX =    0.0                 !
 ! D70   D(15,16,18,21)       -179.9167         -DE/DX =    0.0                 !
 ! D71   D(15,16,18,22)          0.0159         -DE/DX =    0.0                 !
 ! D72   D(17,16,18,21)         -0.0554         -DE/DX =    0.0                 !
 ! D73   D(17,16,18,22)        179.8772         -DE/DX =    0.0                 !
 ! D74   D(16,17,19,23)         -0.0305         -DE/DX =    0.0                 !
 ! D75   D(16,17,19,24)        179.986          -DE/DX =    0.0                 !
 ! D76   D(20,17,19,23)        179.8638         -DE/DX =    0.0                 !
 ! D77   D(20,17,19,24)         -0.1196         -DE/DX =    0.0                 !
 ! D78   D(16,18,21,23)          0.0894         -DE/DX =    0.0                 !
 ! D79   D(16,18,21,25)       -179.9126         -DE/DX =    0.0                 !
 ! D80   D(22,18,21,23)       -179.8428         -DE/DX =    0.0                 !
 ! D81   D(22,18,21,25)          0.1553         -DE/DX =    0.0                 !
 ! D82   D(17,19,23,21)          0.062          -DE/DX =    0.0                 !
 ! D83   D(17,19,23,26)        177.7913         -DE/DX =    0.0                 !
 ! D84   D(24,19,23,21)       -179.9544         -DE/DX =    0.0                 !
 ! D85   D(24,19,23,26)         -2.2252         -DE/DX =    0.0                 !
 ! D86   D(18,21,23,19)         -0.0919         -DE/DX =    0.0                 !
 ! D87   D(18,21,23,26)       -177.8286         -DE/DX =    0.0                 !
 ! D88   D(25,21,23,19)        179.91           -DE/DX =    0.0                 !
 ! D89   D(25,21,23,26)          2.1734         -DE/DX =    0.0                 !
 ! D90   D(19,23,26,27)         19.5086         -DE/DX =    0.0                 !
 ! D91   D(19,23,26,28)        162.5159         -DE/DX =    0.0                 !
 ! D92   D(21,23,26,27)       -162.8067         -DE/DX =    0.0                 !
 ! D93   D(21,23,26,28)        -19.7994         -DE/DX =    0.0                 !
 --------------------------------------------------------------------------------
 GradGradGradGradGradGradGradGradGradGradGradGradGradGradGradGradGradGrad

                          Input orientation:                          
 ---------------------------------------------------------------------
 Center     Atomic      Atomic             Coordinates (Angstroms)
 Number     Number       Type             X           Y           Z
 ---------------------------------------------------------------------
      1          6           0        0.758597    0.268382    0.002795
      2          6           0       -0.030734   -0.881964    0.003759
      3          6           0       -1.453506   -0.812636    0.001316
      4          6           0       -2.062531    0.465900   -0.003983
      5          6           0       -1.245305    1.629377   -0.004260
      6          6           0        0.109094    1.541609   -0.000468
      7          6           0       -2.289763   -1.971558    0.003203
      8          6           0       -3.468522    0.577081   -0.008748
      9          1           0       -1.714550    2.603086   -0.007203
     10          6           0       -4.234037   -0.556140   -0.007762
     11          6           0       -3.655937   -1.833113   -0.001104
     12          1           0       -3.934784    1.552743   -0.014839
     13          1           0       -4.270208   -2.724030   -0.001815
     14          7           0        2.153503    0.245302    0.003972
     15          7           0        2.699120   -0.885581    0.004882
     16          6           0        4.102049   -0.932588    0.004876
     17          6           0        4.686081   -2.199398   -0.000083
     18          6           0        4.925543    0.198563    0.006738
     19          6           0        6.058505   -2.345054   -0.002602
     20          1           0        4.047408   -3.074831   -0.003684
     21          6           0        6.294882    0.057770    0.004849
     22          1           0        4.479753    1.183761    0.008564
     23          6           0        6.890114   -1.216900   -0.000848
     24          1           0        6.499649   -3.334765   -0.006226
     25          1           0        6.927288    0.938198    0.007744
     26          7           0        8.257424   -1.349300    0.042151
     27          1           0        8.650824   -2.237752   -0.226596
     28          1           0        8.814821   -0.553190   -0.225670
     29          8           0        0.537269   -2.097022    0.006641
     30          8           0       -1.790438   -3.227394    0.008360
     31          1           0       -0.817967   -3.186017    0.009512
     32         16           0       -6.029338   -0.434555   -0.002737
     33          8           0       -6.461655   -1.058562    1.268620
     34          8           0       -6.339283    1.008424   -0.078031
     35          8           0       -6.478764   -1.191775   -1.192863
     36         16           0        1.045542    3.094661    0.000896
     37          8           0        1.848483    3.095167    1.242078
     38          8           0        0.010252    4.152242   -0.001693
     39          8           0        1.854267    3.094889   -1.236538
     40          1           0        1.543838   -1.948247    0.006544
 ---------------------------------------------------------------------
                    Distance matrix (angstroms):
                    1          2          3          4          5
     1  C    0.000000
     2  C    1.395113   0.000000
     3  C    2.462113   1.424462   0.000000
     4  C    2.828042   2.438236   1.416190   0.000000
     5  C    2.422391   2.789638   2.450879   1.421808   0.000000
     6  C    1.429325   2.427606   2.825631   2.423452   1.357245
     7  C    3.782834   2.508073   1.429136   2.448037   3.749358
     8  C    4.238391   3.734615   2.447796   1.410387   2.459683
     9  H    3.401088   3.870520   3.425693   2.165333   1.080883
    10  C    5.060271   4.215928   2.792351   2.400003   3.702569
    11  C    4.889213   3.747907   2.427362   2.797215   4.219004
    12  H    4.865975   4.601059   3.428122   2.164873   2.690591
    13  H    5.851788   4.622378   3.404005   3.879367   5.301150
    14  N    1.395097   2.457970   3.758956   4.221809   3.669826
    15  N    2.257712   2.729856   4.153267   4.949737   4.677989
    16  C    3.552606   4.133093   5.556851   6.321226   5.929414
    17  C    4.638436   4.897346   6.294255   7.255867   7.059808
    18  C    4.167533   5.072695   6.458701   6.993195   6.334565
    19  C    5.909239   6.262548   7.666722   8.593759   8.315152
    20  H    4.689711   4.630331   5.947907   7.061737   7.081129
    21  C    5.540290   6.395039   7.797123   8.367378   7.702237
    22  H    3.832095   4.961021   6.260129   6.581563   5.742389
    23  C    6.308849   6.928950   8.353408   9.109428   8.618953
    24  H    6.778084   6.975832   8.343491   9.367816   9.199294
    25  H    6.204952   7.192153   8.561726   9.002225   8.201777
    26  N    7.671431   8.301412   9.725833  10.478481   9.958741
    27  H    8.283753   8.789805  10.206878  11.051482  10.627205
    28  H    8.101230   8.854635  10.274111  10.927236  10.296541
    29  O    2.375739   1.341269   2.369147   3.650704   4.130828
    30  O    4.326438   2.932171   2.438161   3.703324   4.887285
    31  H    3.797166   2.434837   2.457013   3.858188   4.834338
    32  S    6.824237   6.015270   4.591428   4.067724   5.210259
    33  O    7.449506   6.556509   5.171857   4.826571   6.004628
    34  O    7.136813   6.586201   5.214727   4.311661   5.132216
    35  O    7.479375   6.565438   5.179096   4.864610   6.063066
    36  S    2.840809   4.119699   4.638126   4.070691   2.719386
    37  O    3.273284   4.569733   5.264366   4.874603   3.643271
    38  O    3.955301   5.034375   5.176157   4.229131   2.818027
    39  O    3.274993   4.572409   5.267105   4.875662   3.643292
    40  H    2.351609   1.901643   3.205262   4.339829   4.536390
                    6          7          8          9         10
     6  C    0.000000
     7  C    4.254042   0.000000
     8  C    3.705363   2.808056   0.000000
     9  H    2.110085   4.610678   2.679760   0.000000
    10  C    4.823213   2.404939   1.367554   4.040857   0.000000
    11  C    5.056106   1.373178   2.417482   4.842405   1.401750
    12  H    4.043919   3.889359   1.081367   2.456159   2.130021
    13  H    6.113424   2.118584   3.397069   5.908433   2.168200
    14  N    2.420751   4.965589   5.631820   4.530022   6.437632
    15  N    3.549579   5.105712   6.338720   5.625960   6.940990
    16  C    4.697379   6.475703   7.719639   6.806906   8.344591
    17  C    5.911340   6.979565   8.614317   8.001999   9.070219
    18  C    5.000201   7.534592   8.402609   7.062065   9.190631
    19  C    7.106451   8.356621   9.965097   9.214364  10.446849
    20  H    6.068100   6.432495   8.356176   8.089432   8.655989
    21  C    6.361272   8.821242   9.777214   8.404153  10.546809
    22  H    4.385293   7.468763   7.971413   6.354850   8.885812
    23  C    7.320628   9.210845  10.512838   9.414488  11.143760
    24  H    8.038547   8.894503  10.708266  10.135637  11.087505
    25  H    6.844847   9.665440  10.402093   8.800763  11.260926
    26  N    8.646065  10.565599  11.883238  10.726792  12.516716
    27  H    9.343224  10.946237  12.443845  11.442151  12.995974
    28  H    8.957040  11.197139  12.337142  10.994428  13.050677
    29  O    3.663743   2.829816   4.816370   5.211707   5.013969
    30  O    5.133390   1.351472   4.158159   5.830995   3.620364
    31  H    4.817674   1.908175   4.602899   5.858144   4.311158
    32  S    6.448688   4.043122   2.753402   5.276806   1.799421
    33  O    7.179570   4.454158   3.642231   6.129470   2.616078
    34  O    6.470848   5.028470   2.903813   4.892455   2.623902
    35  O    7.231395   4.425649   3.686806   6.205199   2.616734
    36  S    1.813535   6.065545   5.168662   2.803537   6.418907
    37  O    2.642525   6.658198   6.014638   3.807631   7.203554
    38  O    2.612504   6.541484   4.988355   2.318373   6.338997
    39  O    2.643138   6.661744   6.014890   3.806519   7.204675
    40  H    3.773279   3.833673   5.612599   5.597492   5.943232
                   11         12         13         14         15
    11  C    0.000000
    12  H    3.397347   0.000000
    13  H    1.082156   4.289926   0.000000
    14  N    6.170043   6.227117   7.076794   0.000000
    15  N    6.425309   7.067849   7.207736   1.255625   0.000000
    16  C    7.810079   8.412369   8.561775   2.276897   1.403717
    17  C    8.350056   9.402026   8.971642   3.520019   2.382049
    18  C    8.818706   8.963240   9.649013   2.772436   2.476355
    19  C    9.727923  10.726546  10.335663   4.686046   3.662730
    20  H    7.802781   9.226589   8.325010   3.822331   2.571142
    21  C   10.128883  10.338346  10.925181   4.145623   3.717448
    22  H    8.677043   8.422656   9.582940   2.508419   2.729990
    23  C   10.564039  11.173609  11.261626   4.957171   4.204074
    24  H   10.266007  11.522378  10.787160   5.630805   4.521354
    25  H   10.940059  10.879466  11.781167   4.823810   4.604735
    26  N   11.923259  12.532958  12.602911   6.308888   5.577739
    27  H   12.315476  13.145730  12.932132   6.959447   6.107760
    28  H   12.538279  12.924079  13.265769   6.712934   6.129065
    29  O    4.201510   5.772391   4.848200   2.845821   2.478143
    30  O    2.328990   5.239128   2.530363   5.254932   5.063618
    31  H    3.143968   5.671947   3.483034   4.539120   4.202609
    32  S    2.754814   2.887327   2.887254   8.211037   8.740106
    33  O    3.175560   3.853733   3.031539   8.804563   9.249149
    34  O    3.909041   2.466150   4.268266   8.527397   9.235088
    35  O    3.130488   3.923258   2.940088   8.832533   9.260772
    36  S    6.810790   5.213579   7.881267   3.057194   4.310066
    37  O    7.492135   6.115970   8.535145   3.122127   4.254479
    38  O    7.018932   4.724497   8.099718   4.456202   5.710492
    39  O    7.494921   6.114235   8.537771   3.122268   4.254297
    40  H    5.201055   6.501745   5.865580   2.276699   1.569694
                   16         17         18         19         20
    16  C    0.000000
    17  C    1.394964   0.000000
    18  C    1.399160   2.409897   0.000000
    19  C    2.413055   1.380134   2.784542   0.000000
    20  H    2.142957   1.083651   3.389150   2.139414   0.000000
    21  C    2.406102   2.771835   1.376559   2.414434   3.855438
    22  H    2.149792   3.389456   1.081364   3.865891   4.280500
    23  C    2.802530   2.413102   2.421390   1.401537   3.396012
    24  H    3.393974   2.139654   3.868123   1.083582   2.465980
    25  H    3.388484   3.855849   2.134020   3.396267   4.939457
    26  N    4.176383   3.671367   3.674039   2.414285   4.550142
    27  H    4.737972   3.971393   4.457329   2.604189   4.684211
    28  H    4.733636   4.450548   3.968076   3.295119   5.397794
    29  O    3.750142   4.150081   4.952440   5.526813   3.643802
    30  O    6.323571   6.557603   7.539336   7.898390   5.839851
    31  H    5.411517   5.591785   6.666580   6.927715   4.866663
    32  S   10.143624  10.859784  10.973165  12.237891  10.416903
    33  O   10.639773  11.277550  11.525667  12.650118  10.776108
    34  O   10.620538  11.482808  11.294219  12.843546  11.160728
    35  O   10.651543  11.273500  11.551204  12.646339  10.759198
    36  S    5.055788   6.424998   4.841677   7.397318   6.861039
    37  O    4.778289   6.134114   4.402804   6.990673   6.667539
    38  O    6.526741   7.887124   6.308070   8.876723   8.278237
    39  O    4.776422   6.130047   4.400816   6.985069   6.662975
    40  H    2.752456   3.152272   4.005587   4.532081   2.745388
                   21         22         23         24         25
    21  C    0.000000
    22  H    2.136016   0.000000
    23  C    1.406811   3.401926   0.000000
    24  H    3.398727   4.949472   2.153565   0.000000
    25  H    1.084020   2.459823   2.155435   4.294331   0.000000
    26  N    2.415121   4.548442   1.374378   2.652204   2.646336
    27  H    3.297491   5.399989   2.047730   2.424780   3.621069
    28  H    2.603171   4.675968   2.048304   3.625649   2.416920
    29  O    6.147621   5.129008   6.413526   6.089511   7.074242
    30  O    8.727240   7.666393   8.910340   8.290795   9.661827
    31  H    7.817595   6.867372   7.955630   7.319144   8.774857
    32  S   12.334052  10.632971  12.943118  12.860278  13.029149
    33  O   12.867500  11.239669  13.412918  13.221260  13.595611
    34  O   12.670152  10.820804  13.415475  13.553841  13.267034
    35  O   12.890381  11.277220  13.421939  13.207563  13.627196
    36  S    6.064512   3.930065   7.262823   8.431183   6.264609
    37  O    5.525123   3.478306   6.749580   8.033407   5.654233
    38  O    7.500755   5.365485   8.726981   9.907954   7.627290
    39  O    5.521250   3.477911   6.743754   8.027060   5.651115
    40  H    5.157182   4.292910   5.396072   5.146130   6.108445
                   26         27         28         29         30
    26  N    0.000000
    27  H    1.008134   0.000000
    28  H    1.008073   1.692525   0.000000
    29  O    7.756362   8.118127   8.423494   0.000000
    30  O   10.221933  10.490689  10.939728   2.587656   0.000000
    31  H    9.259444   9.519084   9.988878   1.738557   0.973352
    32  S   14.316087  14.792187  14.846307   6.773789   5.076253
    33  O   14.772950  15.231979  15.357702   7.187205   5.302108
    34  O   14.786385  15.338287  15.235068   7.545723   6.216238
    35  O   14.788689  15.196453  15.337438   7.175165   5.250436
    36  S    8.471230   9.291216   8.586027   5.216507   6.929013
    37  O    7.890984   8.767489   7.999666   5.495854   7.398553
    38  O    9.913866  10.749050   9.985574   6.271452   7.596158
    39  O    7.898499   8.697714   7.923361   5.498719   7.403034
    40  H    6.740345   7.116700   7.407246   1.017504   3.571220
                   31         32         33         34         35
    31  H    0.000000
    32  S    5.893138   0.000000
    33  O    6.161382   1.480754   0.000000
    34  O    6.934402   1.477810   2.469996   0.000000
    35  O    6.121056   1.480462   2.465144   2.470462   0.000000
    36  S    6.551309   7.906283   8.672623   7.674259   8.741497
    37  O    6.934150   8.721730   9.290456   8.552000   9.677286
    38  O    7.384856   7.583887   8.405459   7.085620   8.490272
    39  O    6.938534   8.725277   9.627125   8.534034   9.371062
    40  H    2.666496   7.722975   8.153054   8.419778   8.146961
                   36         37         38         39         40
    36  S    0.000000
    37  O    1.478259   0.000000
    38  O    1.479969   2.458347   0.000000
    39  O    1.478269   2.478623   2.458298   0.000000
    40  H    5.067471   5.201479   6.290304   5.203349   0.000000
 Stoichiometry    C16H11N3O8S2(2-)
 Framework group  C1[X(C16H11N3O8S2)]
 Deg. of freedom   114
 Full point group                 C1      NOp   1
 Largest Abelian subgroup         C1      NOp   1
 Largest concise Abelian subgroup C1      NOp   1
                         Standard orientation:                         
 ---------------------------------------------------------------------
 Center     Atomic      Atomic             Coordinates (Angstroms)
 Number     Number       Type             X           Y           Z
 ---------------------------------------------------------------------
      1          6           0        0.758581    0.268391    0.002828
      2          6           0       -0.030755   -0.881951    0.003792
      3          6           0       -1.453527   -0.812617    0.001349
      4          6           0       -2.062546    0.465921   -0.003950
      5          6           0       -1.245314    1.629395   -0.004227
      6          6           0        0.109084    1.541620   -0.000435
      7          6           0       -2.289790   -1.971536    0.003236
      8          6           0       -3.468536    0.577109   -0.008715
      9          1           0       -1.714555    2.603106   -0.007170
     10          6           0       -4.234057   -0.556108   -0.007729
     11          6           0       -3.655963   -1.833084   -0.001071
     12          1           0       -3.934794    1.552773   -0.014806
     13          1           0       -4.270238   -2.723998   -0.001782
     14          7           0        2.153487    0.245304    0.004006
     15          7           0        2.699098   -0.885582    0.004915
     16          6           0        4.102028   -0.932596    0.004909
     17          6           0        4.686054   -2.199408   -0.000050
     18          6           0        4.925527    0.198552    0.006772
     19          6           0        6.058477   -2.345070   -0.002569
     20          1           0        4.047376   -3.074838   -0.003651
     21          6           0        6.294865    0.057752    0.004883
     22          1           0        4.479741    1.183752    0.008597
     23          6           0        6.890091   -1.216920   -0.000815
     24          1           0        6.499616   -3.334783   -0.006192
     25          1           0        6.927275    0.938177    0.007777
     26          7           0        8.257400   -1.349327    0.042184
     27          1           0        8.650796   -2.237780   -0.226562
     28          1           0        8.814801   -0.553220   -0.225636
     29          8           0        0.537242   -2.097012    0.006674
     30          8           0       -1.790471   -3.227374    0.008394
     31          1           0       -0.817999   -3.186001    0.009545
     32         16           0       -6.029358   -0.434515   -0.002703
     33          8           0       -6.461677   -1.058520    1.268653
     34          8           0       -6.339296    1.008466   -0.077998
     35          8           0       -6.478787   -1.191733   -1.192830
     36         16           0        1.045539    3.094668    0.000929
     37          8           0        1.848480    3.095170    1.242111
     38          8           0        0.010254    4.152254   -0.001660
     39          8           0        1.854264    3.094892   -1.236505
     40          1           0        1.543811   -1.948243    0.006578
 ---------------------------------------------------------------------
 Rotational constants (GHZ):           0.2954410           0.0646991           0.0541898

 **********************************************************************

            Population analysis using the SCF Density.

 **********************************************************************

 Orbital symmetries:
       Occupied  (A) (A) (A) (A) (A) (A) (A) (A) (A) (A) (A) (A)
                 (A) (A) (A) (A) (A) (A) (A) (A) (A) (A) (A) (A)
                 (A) (A) (A) (A) (A) (A) (A) (A) (A) (A) (A) (A)
                 (A) (A) (A) (A) (A) (A) (A) (A) (A) (A) (A) (A)
                 (A) (A) (A) (A) (A) (A) (A) (A) (A) (A) (A) (A)
                 (A) (A) (A) (A) (A) (A) (A) (A) (A) (A) (A) (A)
                 (A) (A) (A) (A) (A) (A) (A) (A) (A) (A) (A) (A)
                 (A) (A) (A) (A) (A) (A) (A) (A) (A) (A) (A) (A)
                 (A) (A) (A) (A) (A) (A) (A) (A) (A) (A) (A) (A)
                 (A) (A) (A) (A) (A)
       Virtual   (A) (A) (A) (A) (A) (A) (A) (A) (A) (A) (A) (A)
                 (A) (A) (A) (A) (A) (A) (A) (A) (A) (A) (A) (A)
                 (A) (A) (A) (A) (A) (A) (A) (A) (A) (A) (A) (A)
                 (A) (A) (A) (A) (A) (A) (A) (A) (A) (A) (A) (A)
                 (A) (A) (A) (A) (A) (A) (A) (A) (A) (A) (A) (A)
                 (A) (A) (A) (A) (A) (A) (A) (A) (A) (A) (A) (A)
                 (A) (A) (A) (A) (A) (A) (A) (A) (A) (A) (A) (A)
                 (A) (A) (A) (A) (A) (A) (A) (A) (A) (A) (A) (A)
                 (A) (A) (A) (A) (A) (A) (A) (A) (A) (A) (A) (A)
                 (A) (A) (A) (A) (A) (A) (A) (A) (A) (A) (A) (A)
                 (A) (A) (A) (A) (A) (A) (A) (A) (A) (A) (A) (A)
                 (A) (A) (A) (A) (A) (A) (A) (A) (A) (A) (A) (A)
                 (A) (A) (A) (A) (A) (A) (A) (A) (A) (A) (A) (A)
                 (A) (A) (A) (A) (A) (A) (A) (A) (A) (A) (A) (A)
                 (A) (A) (A) (A) (A) (A) (A) (A) (A) (A) (A) (A)
                 (A) (A) (A) (A) (A) (A) (A) (A) (A) (A) (A) (A)
                 (A) (A) (A) (A) (A) (A) (A) (A) (A) (A) (A) (A)
                 (A) (A) (A) (A) (A) (A) (A) (A) (A) (A) (A) (A)
                 (A) (A) (A) (A) (A) (A) (A) (A) (A) (A) (A) (A)
                 (A) (A) (A) (A) (A) (A) (A) (A) (A) (A) (A) (A)
                 (A) (A) (A) (A) (A) (A) (A) (A) (A) (A) (A) (A)
                 (A) (A) (A) (A) (A) (A) (A) (A) (A) (A) (A) (A)
                 (A) (A) (A) (A) (A) (A) (A) (A) (A) (A) (A) (A)
                 (A) (A) (A) (A) (A) (A) (A) (A) (A) (A) (A) (A)
                 (A) (A) (A) (A) (A) (A) (A) (A) (A) (A) (A) (A)
                 (A) (A) (A) (A) (A) (A) (A) (A) (A) (A) (A) (A)
                 (A) (A) (A) (A) (A) (A) (A) (A) (A) (A) (A) (A)
                 (A) (A) (A) (A) (A) (A) (A) (A) (A) (A) (A) (A)
                 (A) (A) (A) (A) (A) (A) (A) (A) (A) (A) (A) (A)
                 (A) (A) (A) (A) (A) (A) (A) (A) (A) (A) (A) (A)
                 (A) (A) (A) (A) (A) (A) (A) (A) (A) (A) (A) (A)
                 (A) (A) (A) (A) (A) (A) (A) (A) (A) (A) (A) (A)
                 (A) (A) (A) (A) (A) (A) (A) (A) (A) (A) (A) (A)
                 (A) (A) (A) (A) (A) (A) (A) (A) (A) (A) (A) (A)
                 (A) (A) (A) (A) (A) (A) (A) (A) (A) (A) (A) (A)
                 (A) (A) (A) (A) (A) (A) (A) (A) (A) (A) (A) (A)
                 (A) (A) (A) (A) (A) (A) (A) (A) (A) (A) (A) (A)
                 (A) (A) (A) (A) (A) (A) (A) (A) (A) (A) (A) (A)
                 (A) (A) (A) (A) (A) (A) (A) (A) (A) (A) (A) (A)
                 (A) (A) (A) (A) (A) (A) (A) (A) (A) (A) (A) (A)
                 (A) (A) (A) (A) (A) (A) (A) (A) (A) (A) (A) (A)
                 (A) (A) (A) (A) (A) (A) (A) (A) (A) (A) (A) (A)
                 (A) (A) (A) (A) (A) (A) (A) (A) (A) (A) (A) (A)
                 (A) (A) (A) (A) (A) (A) (A) (A) (A) (A) (A) (A)
                 (A) (A) (A) (A) (A) (A) (A) (A) (A) (A) (A) (A)
                 (A) (A) (A) (A) (A) (A) (A) (A) (A) (A) (A) (A)
                 (A) (A) (A) (A) (A) (A) (A) (A) (A) (A) (A) (A)
                 (A) (A) (A) (A) (A) (A) (A) (A) (A) (A) (A) (A)
                 (A) (A) (A) (A) (A) (A) (A) (A) (A) (A) (A) (A)
                 (A) (A) (A) (A) (A) (A) (A) (A) (A) (A) (A) (A)
                 (A) (A) (A) (A) (A) (A) (A) (A)
 The electronic state is 1-A.
 Alpha  occ. eigenvalues --  -89.12181 -89.12144 -19.23943 -19.22773 -19.16200
 Alpha  occ. eigenvalues --  -19.16109 -19.16101 -19.15922 -19.15921 -19.15870
 Alpha  occ. eigenvalues --  -14.45642 -14.44844 -14.40120 -10.34523 -10.33199
 Alpha  occ. eigenvalues --  -10.30719 -10.29775 -10.28500 -10.28235 -10.28166
 Alpha  occ. eigenvalues --  -10.28098 -10.27931 -10.26288 -10.26069 -10.25857
 Alpha  occ. eigenvalues --  -10.25694 -10.25558 -10.25352 -10.25150  -8.18294
 Alpha  occ. eigenvalues --   -8.18275  -6.14652  -6.14642  -6.14629  -6.14618
 Alpha  occ. eigenvalues --   -6.14570  -6.14563  -1.19969  -1.19789  -1.18245
 Alpha  occ. eigenvalues --   -1.15398  -1.13325  -1.05637  -1.05376  -1.05338
 Alpha  occ. eigenvalues --   -1.05254  -1.02017  -0.98522  -0.95780  -0.93301
 Alpha  occ. eigenvalues --   -0.88812  -0.87043  -0.84786  -0.84279  -0.81886
 Alpha  occ. eigenvalues --   -0.77883  -0.74900  -0.73551  -0.71139  -0.70009
 Alpha  occ. eigenvalues --   -0.68635  -0.68207  -0.66108  -0.63935  -0.62502
 Alpha  occ. eigenvalues --   -0.60766  -0.60522  -0.59189  -0.58516  -0.57857
 Alpha  occ. eigenvalues --   -0.56326  -0.55516  -0.54568  -0.53687  -0.52955
 Alpha  occ. eigenvalues --   -0.52546  -0.52236  -0.51975  -0.51787  -0.51154
 Alpha  occ. eigenvalues --   -0.51142  -0.50630  -0.50158  -0.49485  -0.48482
 Alpha  occ. eigenvalues --   -0.48099  -0.46927  -0.46430  -0.45965  -0.44985
 Alpha  occ. eigenvalues --   -0.44812  -0.42702  -0.41946  -0.41724  -0.40482
 Alpha  occ. eigenvalues --   -0.40383  -0.40236  -0.40037  -0.39080  -0.37274
 Alpha  occ. eigenvalues --   -0.36518  -0.36215  -0.35889  -0.35459  -0.35112
 Alpha  occ. eigenvalues --   -0.33068  -0.32763  -0.31922  -0.31699  -0.31573
 Alpha  occ. eigenvalues --   -0.31251  -0.27987  -0.25103
 Alpha virt. eigenvalues --   -0.05955  -0.00682   0.01325   0.01770   0.02309
 Alpha virt. eigenvalues --    0.02363   0.02996   0.03526   0.03864   0.04772
 Alpha virt. eigenvalues --    0.05305   0.05359   0.05767   0.06280   0.06563
 Alpha virt. eigenvalues --    0.06765   0.07122   0.07413   0.07510   0.08547
 Alpha virt. eigenvalues --    0.08752   0.08824   0.09313   0.09579   0.09944
 Alpha virt. eigenvalues --    0.10742   0.10941   0.11166   0.11568   0.11734
 Alpha virt. eigenvalues --    0.11993   0.12397   0.12593   0.13050   0.13711
 Alpha virt. eigenvalues --    0.13977   0.14170   0.14293   0.14371   0.14433
 Alpha virt. eigenvalues --    0.14761   0.14974   0.15166   0.15396   0.15771
 Alpha virt. eigenvalues --    0.16235   0.16646   0.16832   0.17029   0.17087
 Alpha virt. eigenvalues --    0.17246   0.17698   0.17809   0.18108   0.18221
 Alpha virt. eigenvalues --    0.18471   0.18717   0.19053   0.19656   0.19842
 Alpha virt. eigenvalues --    0.20158   0.20292   0.20571   0.20754   0.20935
 Alpha virt. eigenvalues --    0.21143   0.21310   0.21765   0.21999   0.22332
 Alpha virt. eigenvalues --    0.22909   0.23188   0.23311   0.23519   0.23921
 Alpha virt. eigenvalues --    0.24394   0.24587   0.24781   0.25181   0.25289
 Alpha virt. eigenvalues --    0.25367   0.25760   0.26072   0.26669   0.26869
 Alpha virt. eigenvalues --    0.27137   0.27532   0.27988   0.28093   0.28397
 Alpha virt. eigenvalues --    0.28542   0.28753   0.28880   0.28926   0.29345
 Alpha virt. eigenvalues --    0.30249   0.30560   0.30618   0.30812   0.30966
 Alpha virt. eigenvalues --    0.31124   0.31190   0.31790   0.32056   0.32472
 Alpha virt. eigenvalues --    0.32585   0.32669   0.33062   0.33134   0.33245
 Alpha virt. eigenvalues --    0.33413   0.33553   0.33803   0.34306   0.34492
 Alpha virt. eigenvalues --    0.34713   0.34911   0.35072   0.35333   0.35516
 Alpha virt. eigenvalues --    0.35688   0.36161   0.36599   0.37110   0.37279
 Alpha virt. eigenvalues --    0.37421   0.37664   0.37783   0.38557   0.38677
 Alpha virt. eigenvalues --    0.38790   0.38948   0.39438   0.39978   0.40079
 Alpha virt. eigenvalues --    0.40628   0.41193   0.41431   0.42195   0.42600
 Alpha virt. eigenvalues --    0.42808   0.42936   0.43977   0.44285   0.44353
 Alpha virt. eigenvalues --    0.44553   0.45013   0.45555   0.45868   0.46066
 Alpha virt. eigenvalues --    0.46536   0.46976   0.47552   0.48328   0.49429
 Alpha virt. eigenvalues --    0.49494   0.49973   0.51489   0.52005   0.52498
 Alpha virt. eigenvalues --    0.52817   0.54333   0.54524   0.55870   0.57135
 Alpha virt. eigenvalues --    0.57547   0.58121   0.58578   0.59195   0.59621
 Alpha virt. eigenvalues --    0.59786   0.60397   0.60620   0.60919   0.61643
 Alpha virt. eigenvalues --    0.62183   0.62728   0.63417   0.64352   0.64737
 Alpha virt. eigenvalues --    0.65331   0.65516   0.66027   0.66708   0.67449
 Alpha virt. eigenvalues --    0.67579   0.68105   0.68308   0.68827   0.69628
 Alpha virt. eigenvalues --    0.69789   0.70050   0.70581   0.71196   0.71548
 Alpha virt. eigenvalues --    0.71891   0.72876   0.73177   0.73359   0.73711
 Alpha virt. eigenvalues --    0.75001   0.75530   0.76887   0.77303   0.77834
 Alpha virt. eigenvalues --    0.79231   0.79499   0.79841   0.80443   0.81178
 Alpha virt. eigenvalues --    0.82297   0.82489   0.83375   0.83440   0.84565
 Alpha virt. eigenvalues --    0.85082   0.86558   0.87180   0.87627   0.89086
 Alpha virt. eigenvalues --    0.89880   0.90149   0.90913   0.91618   0.92409
 Alpha virt. eigenvalues --    0.93062   0.93761   0.94090   0.94427   0.95446
 Alpha virt. eigenvalues --    0.95868   0.96127   0.96785   0.97555   0.98096
 Alpha virt. eigenvalues --    0.98225   0.98372   0.99249   0.99512   1.00483
 Alpha virt. eigenvalues --    1.01040   1.01506   1.02251   1.02589   1.03221
 Alpha virt. eigenvalues --    1.03891   1.04804   1.05592   1.05787   1.06135
 Alpha virt. eigenvalues --    1.07056   1.07418   1.08120   1.08335   1.09050
 Alpha virt. eigenvalues --    1.09238   1.09903   1.10316   1.11059   1.12238
 Alpha virt. eigenvalues --    1.12617   1.13478   1.14118   1.14258   1.14794
 Alpha virt. eigenvalues --    1.15158   1.15279   1.16184   1.16390   1.18642
 Alpha virt. eigenvalues --    1.19543   1.19818   1.20385   1.20926   1.21143
 Alpha virt. eigenvalues --    1.22574   1.23227   1.23436   1.23740   1.24392
 Alpha virt. eigenvalues --    1.24572   1.25657   1.25697   1.26107   1.26513
 Alpha virt. eigenvalues --    1.26959   1.28112   1.28223   1.28537   1.28595
 Alpha virt. eigenvalues --    1.29425   1.30251   1.31104   1.31345   1.32669
 Alpha virt. eigenvalues --    1.33584   1.33771   1.34037   1.34543   1.34744
 Alpha virt. eigenvalues --    1.35280   1.36967   1.37830   1.38453   1.41707
 Alpha virt. eigenvalues --    1.41934   1.43375   1.44463   1.45483   1.45548
 Alpha virt. eigenvalues --    1.48289   1.51230   1.52996   1.54143   1.55403
 Alpha virt. eigenvalues --    1.56321   1.56377   1.57175   1.57942   1.59504
 Alpha virt. eigenvalues --    1.60297   1.61019   1.62357   1.62592   1.62965
 Alpha virt. eigenvalues --    1.63058   1.64176   1.65071   1.65272   1.65294
 Alpha virt. eigenvalues --    1.66303   1.67863   1.68158   1.68689   1.69352
 Alpha virt. eigenvalues --    1.69492   1.70498   1.71535   1.71810   1.72956
 Alpha virt. eigenvalues --    1.73231   1.75588   1.75998   1.77100   1.77807
 Alpha virt. eigenvalues --    1.78576   1.79568   1.81534   1.82794   1.83527
 Alpha virt. eigenvalues --    1.84437   1.85160   1.86283   1.88393   1.89561
 Alpha virt. eigenvalues --    1.90169   1.91162   1.92069   1.92243   1.93284
 Alpha virt. eigenvalues --    1.93780   1.95197   1.95996   1.96686   1.97445
 Alpha virt. eigenvalues --    1.98608   1.99197   1.99833   1.99913   2.00018
 Alpha virt. eigenvalues --    2.00658   2.01308   2.01514   2.03944   2.04306
 Alpha virt. eigenvalues --    2.05029   2.06350   2.07180   2.07968   2.08585
 Alpha virt. eigenvalues --    2.09220   2.09488   2.12674   2.13257   2.13617
 Alpha virt. eigenvalues --    2.14625   2.15295   2.15335   2.16141   2.17411
 Alpha virt. eigenvalues --    2.19361   2.20255   2.20551   2.23276   2.24012
 Alpha virt. eigenvalues --    2.28760   2.29492   2.32228   2.32364   2.34114
 Alpha virt. eigenvalues --    2.34606   2.37854   2.39131   2.41140   2.42527
 Alpha virt. eigenvalues --    2.43777   2.43840   2.44441   2.49198   2.51701
 Alpha virt. eigenvalues --    2.52741   2.52822   2.54817   2.56046   2.60172
 Alpha virt. eigenvalues --    2.61879   2.63029   2.64142   2.65574   2.67704
 Alpha virt. eigenvalues --    2.69686   2.70076   2.71835   2.72209   2.73879
 Alpha virt. eigenvalues --    2.75179   2.75697   2.77231   2.77392   2.77966
 Alpha virt. eigenvalues --    2.79366   2.79817   2.81000   2.81233   2.81715
 Alpha virt. eigenvalues --    2.83904   2.84768   2.85838   2.85919   2.86268
 Alpha virt. eigenvalues --    2.86393   2.86515   2.87637   2.88699   2.89026
 Alpha virt. eigenvalues --    2.90955   2.91520   2.91550   2.91771   2.91835
 Alpha virt. eigenvalues --    2.91929   2.92316   2.94056   2.94289   2.94705
 Alpha virt. eigenvalues --    2.94872   2.95439   2.95913   2.96592   2.96631
 Alpha virt. eigenvalues --    2.97016   2.97697   2.98255   2.98719   2.98880
 Alpha virt. eigenvalues --    3.00224   3.00988   3.01392   3.04749   3.05441
 Alpha virt. eigenvalues --    3.07018   3.08065   3.08498   3.10299   3.11231
 Alpha virt. eigenvalues --    3.12819   3.13223   3.13955   3.14753   3.15858
 Alpha virt. eigenvalues --    3.17228   3.17563   3.17716   3.19722   3.23033
 Alpha virt. eigenvalues --    3.23989   3.24111   3.25474   3.26118   3.26505
 Alpha virt. eigenvalues --    3.27007   3.27478   3.29226   3.30002   3.31438
 Alpha virt. eigenvalues --    3.33958   3.37149   3.39716   3.42046   3.43652
 Alpha virt. eigenvalues --    3.44688   3.46374   3.47777   3.49485   3.51184
 Alpha virt. eigenvalues --    3.52612   3.55397   3.58138   3.59511   3.59670
 Alpha virt. eigenvalues --    3.63193   3.65286   3.66264   3.67541   3.68119
 Alpha virt. eigenvalues --    3.69851   3.71243   3.71465   3.72824   3.78077
 Alpha virt. eigenvalues --    3.87825   3.88394   3.88547   3.89771   3.94014
 Alpha virt. eigenvalues --    3.95861   4.01027   4.02757   4.07158   4.08151
 Alpha virt. eigenvalues --    4.08924   4.12502   4.19414   4.23445   4.26183
 Alpha virt. eigenvalues --    4.28504   4.31979   4.35455   4.43323   4.62426
 Alpha virt. eigenvalues --    4.84607   4.92643   4.92786   4.93181   4.94440
 Alpha virt. eigenvalues --    5.07209   5.09004   5.09660   5.10149   5.10513
 Alpha virt. eigenvalues --    5.12842   5.14258   5.14555   5.14867   5.16419
 Alpha virt. eigenvalues --    5.17219   5.18488   5.19758   5.20858   5.21892
 Alpha virt. eigenvalues --    5.22780   5.27159   5.35921   5.36636   5.40194
 Alpha virt. eigenvalues --    5.42555   5.53962   5.58368   5.64976   5.89193
 Alpha virt. eigenvalues --    5.92992   8.28968   8.32239  17.47694  17.48849
 Alpha virt. eigenvalues --   17.49381  17.52034  17.58212  17.61375  23.55920
 Alpha virt. eigenvalues --   23.71082  23.82948  23.93135  23.96734  24.01747
 Alpha virt. eigenvalues --   24.02274  24.03260  24.06990  24.10465  24.11234
 Alpha virt. eigenvalues --   24.17393  24.19736  24.24632  24.25320  24.26651
 Alpha virt. eigenvalues --   35.58761  35.71147  35.76953  49.93968  49.95294
 Alpha virt. eigenvalues --   49.96816  49.98285  50.03142  50.03384  50.04341
 Alpha virt. eigenvalues --   50.05600 189.30958 189.34710
          Condensed to atoms (all electrons):
               1          2          3          4          5          6
     1  C   11.281281  -0.292046   0.830603  -0.925866   1.436953  -4.075388
     2  C   -0.292046   9.468204   2.787595   0.379397   1.474565   0.739444
     3  C    0.830603   2.787595  17.193692   5.481533   2.514654  -2.333080
     4  C   -0.925866   0.379397   5.481533  18.582604  -0.616958  -2.312657
     5  C    1.436953   1.474565   2.514654  -0.616958  11.513324  -3.594096
     6  C   -4.075388   0.739444  -2.333080  -2.312657  -3.594096  18.554942
     7  C    0.236457  -4.018441  -3.874041  -1.060494  -1.963886  -1.026998
     8  C   -2.739055  -1.288940  -2.882777  -2.411316  -4.557809   5.177890
     9  H   -0.016046   0.089534   0.096042   0.150950   0.660889  -0.121830
    10  C   -1.249926  -0.890764  -4.179982  -6.898823   0.911817   0.784685
    11  C    1.113098  -1.812091  -9.331184  -2.801184  -1.927146  -0.926660
    12  H   -0.006492  -0.036479  -0.094438   0.014927  -0.334159   0.154505
    13  H    0.007548  -0.017926  -0.250999   0.102388  -0.101602   0.010146
    14  N    0.911694  -0.582380  -0.145787  -0.547870  -0.157215  -0.743039
    15  N   -1.351069   0.489596  -0.088997   0.447938   0.064494   0.918301
    16  C   -0.510756  -0.260669  -0.336351  -0.228315  -0.203446   0.055609
    17  C   -0.044111   0.059469   0.075688   0.107615  -0.036235  -0.077545
    18  C    0.213888   0.070332   0.073325  -0.013831   0.163854   0.083403
    19  C   -0.250294   0.022953  -0.038055  -0.001416  -0.012699   0.047695
    20  H    0.006914   0.014383  -0.003129   0.000263   0.000196  -0.001584
    21  C    0.476007   0.018308   0.050017   0.001971   0.053391  -0.131589
    22  H   -0.033068   0.037616  -0.002260   0.010682  -0.003262   0.068273
    23  C    0.091838   0.011254   0.016193   0.007332   0.002043   0.029196
    24  H   -0.005344  -0.000397  -0.001088  -0.000434  -0.000172   0.000481
    25  H    0.000330  -0.002566   0.000091  -0.000470   0.000147  -0.005881
    26  N   -0.001039   0.000014  -0.000067  -0.000016  -0.000001  -0.000029
    27  H   -0.000397   0.000001  -0.000055  -0.000008  -0.000014   0.000144
    28  H    0.000927   0.000126   0.000065   0.000021   0.000033  -0.000148
    29  O   -0.102423   0.226676  -0.107617  -0.100804   0.026464   0.050892
    30  O    0.020746   0.003523   0.213692   0.006036   0.023936   0.002938
    31  H    0.007664  -0.019497  -0.220884  -0.001749  -0.033720   0.017354
    32  S   -0.013614  -0.013851  -0.100895  -1.113790   0.529957  -0.195128
    33  O    0.000840   0.003844   0.011449   0.074614   0.001343  -0.005477
    34  O   -0.000607  -0.009884  -0.019996  -0.065754  -0.012786  -0.017372
    35  O    0.000985   0.002080   0.013340   0.097220   0.000458  -0.004302
    36  S    1.207846  -0.585731  -0.209498  -0.978559   0.090269  -4.182713
    37  O   -0.049084  -0.027039  -0.013770  -0.005313  -0.070002  -0.087759
    38  O    0.249095   0.005945   0.133407  -0.019863   0.409717  -0.072350
    39  O   -0.051705  -0.026337  -0.012672  -0.003034  -0.067052  -0.085414
    40  H   -0.197959   0.074935   0.199678   0.018481   0.065967  -0.009763
               7          8          9         10         11         12
     1  C    0.236457  -2.739055  -0.016046  -1.249926   1.113098  -0.006492
     2  C   -4.018441  -1.288940   0.089534  -0.890764  -1.812091  -0.036479
     3  C   -3.874041  -2.882777   0.096042  -4.179982  -9.331184  -0.094438
     4  C   -1.060494  -2.411316   0.150950  -6.898823  -2.801184   0.014927
     5  C   -1.963886  -4.557809   0.660889   0.911817  -1.927146  -0.334159
     6  C   -1.026998   5.177890  -0.121830   0.784685  -0.926660   0.154505
     7  C   21.161979   0.008610  -0.047752  -4.179678   2.282784   0.068885
     8  C    0.008610  17.186502  -0.406631  -1.929003  -0.803249   0.681212
     9  H   -0.047752  -0.406631   0.554418   0.083214  -0.040236  -0.045673
    10  C   -4.179678  -1.929003   0.083214  27.436889  -1.229302  -0.067155
    11  C    2.282784  -0.803249  -0.040236  -1.229302  21.210647   0.060540
    12  H    0.068885   0.681212  -0.045673  -0.067155   0.060540   0.545019
    13  H   -0.269992   0.063519  -0.002939   0.086388   0.763979   0.011909
    14  N    0.031206  -0.002791  -0.015905  -0.040642   0.007024   0.000291
    15  N   -0.197743   0.114392   0.016568   0.079979  -0.072294  -0.000727
    16  C   -0.012122  -0.106414  -0.004174  -0.027670   0.004212   0.000108
    17  C    0.031222   0.040037  -0.002833   0.003552   0.003566   0.000328
    18  C    0.001882  -0.001334   0.005046   0.001973   0.006465  -0.000330
    19  C    0.007217  -0.001283  -0.000081   0.000221   0.002005   0.000005
    20  H    0.008317   0.000158  -0.000061  -0.000558   0.003282   0.000010
    21  C   -0.004231   0.004151  -0.000413  -0.000691   0.000174   0.000043
    22  H   -0.003647   0.005660   0.000376   0.002778  -0.001107  -0.000055
    23  C    0.002216   0.000281   0.000351   0.000258   0.000152  -0.000018
    24  H   -0.000260  -0.000066  -0.000005  -0.000022  -0.000019   0.000000
    25  H   -0.000046  -0.000048  -0.000042  -0.000034   0.000007   0.000002
    26  N    0.000000  -0.000001  -0.000001  -0.000000   0.000000   0.000000
    27  H    0.000010  -0.000003   0.000001   0.000000   0.000001  -0.000000
    28  H   -0.000002   0.000006  -0.000001   0.000000  -0.000000   0.000000
    29  O   -0.221609  -0.025718   0.000309   0.020076   0.032212  -0.000123
    30  O    0.220561  -0.010332   0.000166  -0.010427  -0.539410   0.000406
    31  H    0.162900   0.024575  -0.000746  -0.051644   0.176075   0.001233
    32  S   -0.019500  -0.212860   0.043200  -1.800711   0.862149  -0.186341
    33  O   -0.175926   0.073416   0.001138   0.383171  -0.347841  -0.004626
    34  O    0.119833   0.207713   0.004428  -0.560535   0.400327  -0.027785
    35  O   -0.183966   0.084107   0.000843   0.379736  -0.389824   0.000118
    36  S   -0.232727   0.024148  -0.206595  -0.379159  -0.085141   0.035879
    37  O   -0.003781  -0.029889  -0.001649  -0.009304  -0.000611   0.000763
    38  O    0.006890   0.035682  -0.059779  -0.025045   0.007971   0.007184
    39  O   -0.003997  -0.031767  -0.001040  -0.009157  -0.000663   0.000646
    40  H   -0.213900   0.001659   0.003125   0.039954  -0.156658  -0.000763
              13         14         15         16         17         18
     1  C    0.007548   0.911694  -1.351069  -0.510756  -0.044111   0.213888
     2  C   -0.017926  -0.582380   0.489596  -0.260669   0.059469   0.070332
     3  C   -0.250999  -0.145787  -0.088997  -0.336351   0.075688   0.073325
     4  C    0.102388  -0.547870   0.447938  -0.228315   0.107615  -0.013831
     5  C   -0.101602  -0.157215   0.064494  -0.203446  -0.036235   0.163854
     6  C    0.010146  -0.743039   0.918301   0.055609  -0.077545   0.083403
     7  C   -0.269992   0.031206  -0.197743  -0.012122   0.031222   0.001882
     8  C    0.063519  -0.002791   0.114392  -0.106414   0.040037  -0.001334
     9  H   -0.002939  -0.015905   0.016568  -0.004174  -0.002833   0.005046
    10  C    0.086388  -0.040642   0.079979  -0.027670   0.003552   0.001973
    11  C    0.763979   0.007024  -0.072294   0.004212   0.003566   0.006465
    12  H    0.011909   0.000291  -0.000727   0.000108   0.000328  -0.000330
    13  H    0.511131   0.000660  -0.001073  -0.000331   0.000017   0.000209
    14  N    0.000660  15.538440  -8.578864   2.117435  -1.364410   0.548366
    15  N   -0.001073  -8.578864  16.647090  -2.449768   1.158053  -0.591428
    16  C   -0.000331   2.117435  -2.449768  15.221402  -0.633284  -0.653647
    17  C    0.000017  -1.364410   1.158053  -0.633284   6.656506  -0.848751
    18  C    0.000209   0.548366  -0.591428  -0.653647  -0.848751   9.875294
    19  C   -0.000044  -0.691319   0.411017   0.558188  -0.113506   1.207015
    20  H    0.000076  -0.000072   0.006154  -0.107744   0.422073   0.020320
    21  C    0.000049  -0.077363   0.421944  -6.153354   0.833450  -2.516245
    22  H   -0.000037  -0.118552   0.147170  -0.186144   0.023040   0.453592
    23  C    0.000005  -0.077148   0.144784  -0.495639  -0.238341  -1.818533
    24  H   -0.000001   0.003655  -0.009170   0.046556  -0.054388   0.046196
    25  H    0.000001   0.016299  -0.021463   0.058798   0.010392   0.045896
    26  N   -0.000000  -0.000915   0.002260  -0.006006   0.034953   0.063075
    27  H   -0.000000  -0.000094  -0.000398   0.003441   0.018915  -0.000535
    28  H    0.000000  -0.000797   0.001580  -0.010040  -0.006445  -0.018274
    29  O   -0.000135   0.308065  -0.237361   0.102634  -0.102570   0.005711
    30  O   -0.034134   0.006476  -0.000981   0.001424  -0.003253   0.001176
    31  H    0.003603  -0.011398   0.001488   0.006246   0.011373  -0.008319
    32  S   -0.135269  -0.000613   0.000947  -0.000677   0.000008   0.000183
    33  O    0.000370  -0.000001   0.000001  -0.000001  -0.000000   0.000000
    34  O    0.002778   0.000002  -0.000002   0.000001   0.000001  -0.000001
    35  O    0.009089  -0.000001   0.000001  -0.000002   0.000000   0.000000
    36  S    0.000553   0.766933  -0.580220   0.485812   0.042457  -0.316312
    37  O    0.000011   0.001499   0.012386   0.060647   0.001076  -0.036444
    38  O    0.000171  -0.089198  -0.067657  -0.065187  -0.002744   0.062601
    39  O    0.000009  -0.002414   0.016825   0.060591   0.002258  -0.038605
    40  H   -0.001766  -0.035085   0.147206  -0.291200  -0.037081   0.122091
              19         20         21         22         23         24
     1  C   -0.250294   0.006914   0.476007  -0.033068   0.091838  -0.005344
     2  C    0.022953   0.014383   0.018308   0.037616   0.011254  -0.000397
     3  C   -0.038055  -0.003129   0.050017  -0.002260   0.016193  -0.001088
     4  C   -0.001416   0.000263   0.001971   0.010682   0.007332  -0.000434
     5  C   -0.012699   0.000196   0.053391  -0.003262   0.002043  -0.000172
     6  C    0.047695  -0.001584  -0.131589   0.068273   0.029196   0.000481
     7  C    0.007217   0.008317  -0.004231  -0.003647   0.002216  -0.000260
     8  C   -0.001283   0.000158   0.004151   0.005660   0.000281  -0.000066
     9  H   -0.000081  -0.000061  -0.000413   0.000376   0.000351  -0.000005
    10  C    0.000221  -0.000558  -0.000691   0.002778   0.000258  -0.000022
    11  C    0.002005   0.003282   0.000174  -0.001107   0.000152  -0.000019
    12  H    0.000005   0.000010   0.000043  -0.000055  -0.000018   0.000000
    13  H   -0.000044   0.000076   0.000049  -0.000037   0.000005  -0.000001
    14  N   -0.691319  -0.000072  -0.077363  -0.118552  -0.077148   0.003655
    15  N    0.411017   0.006154   0.421944   0.147170   0.144784  -0.009170
    16  C    0.558188  -0.107744  -6.153354  -0.186144  -0.495639   0.046556
    17  C   -0.113506   0.422073   0.833450   0.023040  -0.238341  -0.054388
    18  C    1.207015   0.020320  -2.516245   0.453592  -1.818533   0.046196
    19  C   12.666439  -0.088330  -5.301092  -0.047566  -2.498695   0.621695
    20  H   -0.088330   0.491285   0.073128   0.000111   0.021938  -0.019358
    21  C   -5.301092   0.073128  15.952833   0.062001   2.334513  -0.126187
    22  H   -0.047566   0.000111   0.062001   0.516233  -0.045232  -0.000051
    23  C   -2.498695   0.021938   2.334513  -0.045232   9.080502  -0.210995
    24  H    0.621695  -0.019358  -0.126187  -0.000051  -0.210995   0.500200
    25  H    0.005714   0.001689   0.340868  -0.020508  -0.134656  -0.000139
    26  N   -0.029098  -0.000138  -0.099382   0.002616   0.019578  -0.007649
    27  H   -0.011939   0.001361   0.000052  -0.001280  -0.033311  -0.003478
    28  H   -0.013064  -0.000358   0.036614   0.003311  -0.017826   0.001449
    29  O   -0.030595   0.000165  -0.004170  -0.000531  -0.001247  -0.000405
    30  O   -0.000531  -0.000831   0.000062   0.000022   0.000014   0.000005
    31  H    0.005402   0.001509  -0.001646   0.000354  -0.000304   0.000046
    32  S    0.000003  -0.000013  -0.000003   0.000053   0.000004  -0.000001
    33  O    0.000000  -0.000000  -0.000000   0.000000   0.000000  -0.000000
    34  O    0.000000   0.000000  -0.000000   0.000000   0.000000  -0.000000
    35  O    0.000000  -0.000000  -0.000000   0.000000   0.000000  -0.000000
    36  S    0.047858  -0.001955  -0.063324  -0.064837  -0.040526   0.000993
    37  O    0.005803  -0.000167  -0.020543  -0.006528  -0.001895   0.000061
    38  O   -0.001437   0.000111   0.013563   0.001662   0.000390  -0.000011
    39  O    0.006156  -0.000171  -0.020762  -0.006011  -0.001546   0.000062
    40  H   -0.144280  -0.022645   0.086477  -0.000946   0.045589  -0.000773
              25         26         27         28         29         30
     1  C    0.000330  -0.001039  -0.000397   0.000927  -0.102423   0.020746
     2  C   -0.002566   0.000014   0.000001   0.000126   0.226676   0.003523
     3  C    0.000091  -0.000067  -0.000055   0.000065  -0.107617   0.213692
     4  C   -0.000470  -0.000016  -0.000008   0.000021  -0.100804   0.006036
     5  C    0.000147  -0.000001  -0.000014   0.000033   0.026464   0.023936
     6  C   -0.005881  -0.000029   0.000144  -0.000148   0.050892   0.002938
     7  C   -0.000046   0.000000   0.000010  -0.000002  -0.221609   0.220561
     8  C   -0.000048  -0.000001  -0.000003   0.000006  -0.025718  -0.010332
     9  H   -0.000042  -0.000001   0.000001  -0.000001   0.000309   0.000166
    10  C   -0.000034  -0.000000   0.000000   0.000000   0.020076  -0.010427
    11  C    0.000007   0.000000   0.000001  -0.000000   0.032212  -0.539410
    12  H    0.000002   0.000000  -0.000000   0.000000  -0.000123   0.000406
    13  H    0.000001  -0.000000  -0.000000   0.000000  -0.000135  -0.034134
    14  N    0.016299  -0.000915  -0.000094  -0.000797   0.308065   0.006476
    15  N   -0.021463   0.002260  -0.000398   0.001580  -0.237361  -0.000981
    16  C    0.058798  -0.006006   0.003441  -0.010040   0.102634   0.001424
    17  C    0.010392   0.034953   0.018915  -0.006445  -0.102570  -0.003253
    18  C    0.045896   0.063075  -0.000535  -0.018274   0.005711   0.001176
    19  C    0.005714  -0.029098  -0.011939  -0.013064  -0.030595  -0.000531
    20  H    0.001689  -0.000138   0.001361  -0.000358   0.000165  -0.000831
    21  C    0.340868  -0.099382   0.000052   0.036614  -0.004170   0.000062
    22  H   -0.020508   0.002616  -0.001280   0.003311  -0.000531   0.000022
    23  C   -0.134656   0.019578  -0.033311  -0.017826  -0.001247   0.000014
    24  H   -0.000139  -0.007649  -0.003478   0.001449  -0.000405   0.000005
    25  H    0.492761  -0.012637   0.003188  -0.005241  -0.000002  -0.000000
    26  N   -0.012637   6.649252   0.375849   0.378390  -0.000006  -0.000000
    27  H    0.003188   0.375849   0.402777  -0.033593   0.000013  -0.000000
    28  H   -0.005241   0.378390  -0.033593   0.401147  -0.000005  -0.000000
    29  O   -0.000002  -0.000006   0.000013  -0.000005   8.428241   0.018831
    30  O   -0.000000  -0.000000  -0.000000  -0.000000   0.018831   8.170328
    31  H    0.000009   0.000001   0.000001  -0.000001   0.031827   0.233423
    32  S   -0.000000  -0.000000   0.000000   0.000000   0.002100   0.002437
    33  O   -0.000000   0.000000   0.000000  -0.000000   0.000011   0.000129
    34  O    0.000000  -0.000000  -0.000000   0.000000   0.000012  -0.000000
    35  O   -0.000000  -0.000000   0.000000  -0.000000   0.000014   0.000077
    36  S    0.006880   0.000203   0.000043  -0.000281   0.002379  -0.000653
    37  O    0.000379   0.000005   0.000005  -0.000033   0.000811  -0.000009
    38  O   -0.000086  -0.000000  -0.000001   0.000005   0.000130   0.000027
    39  O    0.000154   0.000006   0.000005  -0.000027   0.000767  -0.000008
    40  H   -0.001087  -0.000583  -0.000243   0.000204   0.146132   0.015025
              31         32         33         34         35         36
     1  C    0.007664  -0.013614   0.000840  -0.000607   0.000985   1.207846
     2  C   -0.019497  -0.013851   0.003844  -0.009884   0.002080  -0.585731
     3  C   -0.220884  -0.100895   0.011449  -0.019996   0.013340  -0.209498
     4  C   -0.001749  -1.113790   0.074614  -0.065754   0.097220  -0.978559
     5  C   -0.033720   0.529957   0.001343  -0.012786   0.000458   0.090269
     6  C    0.017354  -0.195128  -0.005477  -0.017372  -0.004302  -4.182713
     7  C    0.162900  -0.019500  -0.175926   0.119833  -0.183966  -0.232727
     8  C    0.024575  -0.212860   0.073416   0.207713   0.084107   0.024148
     9  H   -0.000746   0.043200   0.001138   0.004428   0.000843  -0.206595
    10  C   -0.051644  -1.800711   0.383171  -0.560535   0.379736  -0.379159
    11  C    0.176075   0.862149  -0.347841   0.400327  -0.389824  -0.085141
    12  H    0.001233  -0.186341  -0.004626  -0.027785   0.000118   0.035879
    13  H    0.003603  -0.135269   0.000370   0.002778   0.009089   0.000553
    14  N   -0.011398  -0.000613  -0.000001   0.000002  -0.000001   0.766933
    15  N    0.001488   0.000947   0.000001  -0.000002   0.000001  -0.580220
    16  C    0.006246  -0.000677  -0.000001   0.000001  -0.000002   0.485812
    17  C    0.011373   0.000008  -0.000000   0.000001   0.000000   0.042457
    18  C   -0.008319   0.000183   0.000000  -0.000001   0.000000  -0.316312
    19  C    0.005402   0.000003   0.000000   0.000000   0.000000   0.047858
    20  H    0.001509  -0.000013  -0.000000   0.000000  -0.000000  -0.001955
    21  C   -0.001646  -0.000003  -0.000000  -0.000000  -0.000000  -0.063324
    22  H    0.000354   0.000053   0.000000   0.000000   0.000000  -0.064837
    23  C   -0.000304   0.000004   0.000000   0.000000   0.000000  -0.040526
    24  H    0.000046  -0.000001  -0.000000  -0.000000  -0.000000   0.000993
    25  H    0.000009  -0.000000  -0.000000   0.000000  -0.000000   0.006880
    26  N    0.000001  -0.000000   0.000000  -0.000000  -0.000000   0.000203
    27  H    0.000001   0.000000   0.000000  -0.000000   0.000000   0.000043
    28  H   -0.000001   0.000000  -0.000000   0.000000  -0.000000  -0.000281
    29  O    0.031827   0.002100   0.000011   0.000012   0.000014   0.002379
    30  O    0.233423   0.002437   0.000129  -0.000000   0.000077  -0.000653
    31  H    0.358262  -0.003616  -0.000368   0.000405  -0.000409   0.000758
    32  S   -0.003616  17.253227   0.178792   0.007258   0.148012  -0.023481
    33  O   -0.000368   0.178792   8.639550  -0.216025  -0.232462  -0.000240
    34  O    0.000405   0.007258  -0.216025   8.842214  -0.218651  -0.000723
    35  O   -0.000409   0.148012  -0.232462  -0.218651   8.688082  -0.000203
    36  S    0.000758  -0.023481  -0.000240  -0.000723  -0.000203  20.660037
    37  O   -0.000068  -0.000230  -0.000000  -0.000001  -0.000000   0.493190
    38  O   -0.000199  -0.000754  -0.000001  -0.000016  -0.000000  -0.992987
    39  O   -0.000075  -0.000213  -0.000000  -0.000001  -0.000000   0.488192
    40  H   -0.051443   0.002270   0.000052  -0.000108   0.000070  -0.023385
              37         38         39         40
     1  C   -0.049084   0.249095  -0.051705  -0.197959
     2  C   -0.027039   0.005945  -0.026337   0.074935
     3  C   -0.013770   0.133407  -0.012672   0.199678
     4  C   -0.005313  -0.019863  -0.003034   0.018481
     5  C   -0.070002   0.409717  -0.067052   0.065967
     6  C   -0.087759  -0.072350  -0.085414  -0.009763
     7  C   -0.003781   0.006890  -0.003997  -0.213900
     8  C   -0.029889   0.035682  -0.031767   0.001659
     9  H   -0.001649  -0.059779  -0.001040   0.003125
    10  C   -0.009304  -0.025045  -0.009157   0.039954
    11  C   -0.000611   0.007971  -0.000663  -0.156658
    12  H    0.000763   0.007184   0.000646  -0.000763
    13  H    0.000011   0.000171   0.000009  -0.001766
    14  N    0.001499  -0.089198  -0.002414  -0.035085
    15  N    0.012386  -0.067657   0.016825   0.147206
    16  C    0.060647  -0.065187   0.060591  -0.291200
    17  C    0.001076  -0.002744   0.002258  -0.037081
    18  C   -0.036444   0.062601  -0.038605   0.122091
    19  C    0.005803  -0.001437   0.006156  -0.144280
    20  H   -0.000167   0.000111  -0.000171  -0.022645
    21  C   -0.020543   0.013563  -0.020762   0.086477
    22  H   -0.006528   0.001662  -0.006011  -0.000946
    23  C   -0.001895   0.000390  -0.001546   0.045589
    24  H    0.000061  -0.000011   0.000062  -0.000773
    25  H    0.000379  -0.000086   0.000154  -0.001087
    26  N    0.000005  -0.000000   0.000006  -0.000583
    27  H    0.000005  -0.000001   0.000005  -0.000243
    28  H   -0.000033   0.000005  -0.000027   0.000204
    29  O    0.000811   0.000130   0.000767   0.146132
    30  O   -0.000009   0.000027  -0.000008   0.015025
    31  H   -0.000068  -0.000199  -0.000075  -0.051443
    32  S   -0.000230  -0.000754  -0.000213   0.002270
    33  O   -0.000000  -0.000001  -0.000000   0.000052
    34  O   -0.000001  -0.000016  -0.000001  -0.000108
    35  O   -0.000000  -0.000000  -0.000000   0.000070
    36  S    0.493190  -0.992987   0.488192  -0.023385
    37  O    8.700114  -0.291255  -0.234342  -0.000980
    38  O   -0.291255   9.386666  -0.290724   0.002901
    39  O   -0.234342  -0.290724   8.698309  -0.000957
    40  H   -0.000980   0.002901  -0.000957   0.514985
 Mulliken charges:
               1
     1  C   -0.178423
     2  C   -0.094759
     3  C    0.556556
     4  C    0.624555
     5  C   -0.252213
     6  C   -0.685097
     7  C   -0.636231
     8  C   -0.292431
     9  H    0.263834
    10  C   -0.674461
    11  C   -0.472052
    12  H    0.221152
    13  H    0.241642
    14  N    0.025827
    15  N   -0.000961
    16  C   -0.040164
    17  C    0.029447
    18  C   -0.209305
    19  C   -0.340062
    20  H    0.173670
    21  C   -0.238626
    22  H    0.206072
    23  C   -0.192521
    24  H    0.219013
    25  H    0.221302
    26  N   -0.368635
    27  H    0.279544
    28  H    0.282257
    29  O   -0.469151
    30  O   -0.340890
    31  H    0.361574
    32  S    0.790958
    33  O   -0.385749
    34  O   -0.434725
    35  O   -0.394413
    36  S    0.614823
    37  O   -0.386052
    38  O   -0.344823
    39  O   -0.385287
    40  H    0.704803
 Sum of Mulliken charges =  -2.00000
 Mulliken charges with hydrogens summed into heavy atoms:
               1
     1  C   -0.178423
     2  C   -0.094759
     3  C    0.556556
     4  C    0.624555
     5  C    0.011622
     6  C   -0.685097
     7  C   -0.636231
     8  C   -0.071278
    10  C   -0.674461
    11  C   -0.230410
    14  N    0.025827
    15  N   -0.000961
    16  C   -0.040164
    17  C    0.203117
    18  C   -0.003233
    19  C   -0.121049
    21  C   -0.017324
    23  C   -0.192521
    26  N    0.193165
    29  O    0.235653
    30  O    0.020684
    32  S    0.790958
    33  O   -0.385749
    34  O   -0.434725
    35  O   -0.394413
    36  S    0.614823
    37  O   -0.386052
    38  O   -0.344823
    39  O   -0.385287
 Electronic spatial extent (au):  <R**2>=          18118.8029
 Charge=             -2.0000 electrons
 Dipole moment (field-independent basis, Debye):
    X=             34.1486    Y=            -15.9425    Z=             -1.0412  Tot=             37.7011
 Quadrupole moment (field-independent basis, Debye-Ang):
   XX=           -360.0424   YY=           -258.3408   ZZ=           -208.9064
   XY=            -55.5132   XZ=             -8.9821   YZ=              1.4509
 Traceless Quadrupole moment (field-independent basis, Debye-Ang):
   XX=            -84.2792   YY=             17.4225   ZZ=             66.8568
   XY=            -55.5132   XZ=             -8.9821   YZ=              1.4509
 Octapole moment (field-independent basis, Debye-Ang**2):
  XXX=           2065.5266  YYY=           -266.4191  ZZZ=             -2.0824  XYY=             63.7731
  XXY=            -25.3575  XXZ=            -80.3792  XZZ=             19.3493  YZZ=            -13.2418
  YYZ=             -1.9107  XYZ=             12.8623
 Hexadecapole moment (field-independent basis, Debye-Ang**3):
 XXXX=         -24210.3290 YYYY=          -5191.4597 ZZZZ=           -478.8883 XXXY=          -1560.4470
 XXXZ=           -719.1838 YYYX=           -493.7690 YYYZ=              5.4107 ZZZX=             -1.4017
 ZZZY=              1.6521 XXYY=          -4068.5250 XXZZ=          -3994.5257 YYZZ=           -893.3037
 XXYZ=            112.3567 YYXZ=            -32.4133 ZZXY=            -89.0116
 N-N= 3.041987103552D+03 E-N=-1.126234856732D+04  KE= 2.173766720412D+03
 Unable to Open any file for archive entry.
 1\1\GINC-SOL-E611\FOpt\RCAM-B3LYP\6-311++G(d,p)\C16H11N3O8S2(2-)\ZJK22
 0\19-Mar-2025\0\\# opt freq cam-b3lyp/6-311++g(d,p) scrf=(solvent=wate
 r)\\opt freq\\-2,1\C,0.7585967916,0.2683821132,0.0027947211\C,-0.03073
 40193,-0.8819635948,0.003759201\C,-1.4535055463,-0.8126360039,0.001316
 3588\C,-2.062531415,0.4658997231,-0.0039826808\C,-1.2453048378,1.62937
 72152,-0.0042604375\C,0.1090941068,1.5416085311,-0.0004682119\C,-2.289
 7630388,-1.9715581963,0.0032030118\C,-3.4685216705,0.5770810188,-0.008
 7479336\H,-1.7145501224,2.6030860016,-0.0072028625\C,-4.2340367749,-0.
 5561399172,-0.007761672\C,-3.6559371959,-1.8331130906,-0.0011043293\H,
 -3.9347839327,1.5527428244,-0.0148388146\H,-4.270207839,-2.7240295601,
 -0.0018151556\N,2.1535026519,0.2453017646,0.0039724525\N,2.6991195388,
 -0.8855813775,0.0048817967\C,4.1020491479,-0.9325884686,0.0048758716\C
 ,4.6860814759,-2.1993982933,-0.0000834446\C,4.9255433194,0.198562652,0
 .0067384396\C,6.0585052994,-2.3450535487,-0.002602256\H,4.0474075436,-
 3.0748312015,-0.0036843709\C,6.2948820342,0.0577697495,0.0048494482\H,
 4.4797530346,1.1837606437,0.0085635166\C,6.8901140665,-1.2168998876,-0
 .0008476215\H,6.4996485037,-3.3347648521,-0.0062255776\H,6.9272876566,
 0.9381975543,0.0077436117\N,8.2574238428,-1.3493003265,0.0421513557\H,
 8.6508237004,-2.2377515514,-0.2265955077\H,8.8148206058,-0.5531903997,
 -0.225669547\O,0.5372686841,-2.0970218892,0.0066410637\O,-1.790438238,
 -3.2273941983,0.0083604155\H,-0.817967047,-3.1860165189,0.0095121294\S
 ,-6.0293382589,-0.4345549201,-0.002736558\O,-6.4616550535,-1.058562422
 9,1.2686201444\O,-6.3392833223,1.0084241499,-0.0780311625\O,-6.4787642
 941,-1.1917750836,-1.1928627224\S,1.0455415134,3.0946612941,0.00089559
 87\O,1.8484832346,3.0951669859,1.242078319\O,0.0102515042,4.1522416681
 ,-0.0016929243\O,1.854266697,3.0948888891,-1.2365381268\H,1.5438376532
 ,-1.9482474761,0.0065444608\\Version=ES64L-G16RevC.01\State=1-A\HF=-21
 78.8268977\RMSD=5.364e-09\RMSF=6.289e-06\Dipole=13.4351341,-6.272192,-
 0.4096263\Quadrupole=-62.6591493,12.9527776,49.7063718,-41.2730827,-6.
 6779432,1.0786891\PG=C01 [X(C16H11N3O8S2)]\\@
 The archive entry for this job was punched.


 BLACK HOLES SUCK.
 Job cpu time:       0 days  6 hours 54 minutes  2.8 seconds.
 Elapsed time:       0 days  0 hours 11 minutes 46.0 seconds.
 File lengths (MBytes):  RWF=    580 Int=      0 D2E=      0 Chk=     48 Scr=      8
 Normal termination of Gaussian 16 at Wed Mar 19 17:00:21 2025.
 Link1:  Proceeding to internal job step number  2.
 ----------------------------------------------------------------------
 #N Geom=AllCheck Guess=TCheck SCRF=Check GenChk RCAM-B3LYP/6-311++G(d,
 p) Freq
 ----------------------------------------------------------------------
 1/10=4,29=7,30=1,38=1,40=1/1,3;
 2/12=2,40=1/2;
 3/5=4,6=6,7=1111,11=2,14=-4,25=1,30=1,70=2,71=2,74=-40,116=1,140=1/1,2,3;
 4/5=101/1;
 5/5=2,38=6,98=1/2;
 8/6=4,10=90,11=11/1;
 11/6=1,8=1,9=11,15=111,16=1/1,2,10;
 10/6=1/2;
 6/7=2,8=2,9=2,10=2,28=1/1;
 7/8=1,10=1,25=1/1,2,3,16;
 1/10=4,30=1/3;
 99//99;
 Structure from the checkpoint file:  "AV3_OH.chk"
 --------
 opt freq
 --------
 Charge = -2 Multiplicity = 1
 Redundant internal coordinates found in file.  (old form).
 C,0,0.7585967916,0.2683821132,0.0027947211
 C,0,-0.0307340193,-0.8819635948,0.003759201
 C,0,-1.4535055463,-0.8126360039,0.0013163588
 C,0,-2.062531415,0.4658997231,-0.0039826808
 C,0,-1.2453048378,1.6293772152,-0.0042604375
 C,0,0.1090941068,1.5416085311,-0.0004682119
 C,0,-2.2897630388,-1.9715581963,0.0032030118
 C,0,-3.4685216705,0.5770810188,-0.0087479336
 H,0,-1.7145501224,2.6030860016,-0.0072028625
 C,0,-4.2340367749,-0.5561399172,-0.007761672
 C,0,-3.6559371959,-1.8331130906,-0.0011043293
 H,0,-3.9347839327,1.5527428244,-0.0148388146
 H,0,-4.270207839,-2.7240295601,-0.0018151556
 N,0,2.1535026519,0.2453017646,0.0039724525
 N,0,2.6991195388,-0.8855813775,0.0048817967
 C,0,4.1020491479,-0.9325884686,0.0048758716
 C,0,4.6860814759,-2.1993982933,-0.0000834446
 C,0,4.9255433194,0.198562652,0.0067384396
 C,0,6.0585052994,-2.3450535487,-0.002602256
 H,0,4.0474075436,-3.0748312015,-0.0036843709
 C,0,6.2948820342,0.0577697495,0.0048494482
 H,0,4.4797530346,1.1837606437,0.0085635166
 C,0,6.8901140665,-1.2168998876,-0.0008476215
 H,0,6.4996485037,-3.3347648521,-0.0062255776
 H,0,6.9272876566,0.9381975543,0.0077436117
 N,0,8.2574238428,-1.3493003265,0.0421513557
 H,0,8.6508237004,-2.2377515514,-0.2265955077
 H,0,8.8148206058,-0.5531903997,-0.225669547
 O,0,0.5372686841,-2.0970218892,0.0066410637
 O,0,-1.790438238,-3.2273941983,0.0083604155
 H,0,-0.817967047,-3.1860165189,0.0095121294
 S,0,-6.0293382589,-0.4345549201,-0.002736558
 O,0,-6.4616550535,-1.0585624229,1.2686201444
 O,0,-6.3392833223,1.0084241499,-0.0780311625
 O,0,-6.4787642941,-1.1917750836,-1.1928627224
 S,0,1.0455415134,3.0946612941,0.0008955987
 O,0,1.8484832346,3.0951669859,1.242078319
 O,0,0.0102515042,4.1522416681,-0.0016929243
 O,0,1.854266697,3.0948888891,-1.2365381268
 H,0,1.5438376532,-1.9482474761,0.0065444608
 Recover connectivity data from disk.

 GradGradGradGradGradGradGradGradGradGradGradGradGradGradGradGradGradGrad
 Berny optimization.
 Initialization pass.
                           ----------------------------
                           !    Initial Parameters    !
                           ! (Angstroms and Degrees)  !
 --------------------------                            --------------------------
 ! Name  Definition              Value          Derivative Info.                !
 --------------------------------------------------------------------------------
 ! R1    R(1,2)                  1.3951         calculate D2E/DX2 analytically  !
 ! R2    R(1,6)                  1.4293         calculate D2E/DX2 analytically  !
 ! R3    R(1,14)                 1.3951         calculate D2E/DX2 analytically  !
 ! R4    R(2,3)                  1.4245         calculate D2E/DX2 analytically  !
 ! R5    R(2,29)                 1.3413         calculate D2E/DX2 analytically  !
 ! R6    R(3,4)                  1.4162         calculate D2E/DX2 analytically  !
 ! R7    R(3,7)                  1.4291         calculate D2E/DX2 analytically  !
 ! R8    R(4,5)                  1.4218         calculate D2E/DX2 analytically  !
 ! R9    R(4,8)                  1.4104         calculate D2E/DX2 analytically  !
 ! R10   R(5,6)                  1.3572         calculate D2E/DX2 analytically  !
 ! R11   R(5,9)                  1.0809         calculate D2E/DX2 analytically  !
 ! R12   R(6,36)                 1.8135         calculate D2E/DX2 analytically  !
 ! R13   R(7,11)                 1.3732         calculate D2E/DX2 analytically  !
 ! R14   R(7,30)                 1.3515         calculate D2E/DX2 analytically  !
 ! R15   R(8,10)                 1.3676         calculate D2E/DX2 analytically  !
 ! R16   R(8,12)                 1.0814         calculate D2E/DX2 analytically  !
 ! R17   R(10,11)                1.4018         calculate D2E/DX2 analytically  !
 ! R18   R(10,32)                1.7994         calculate D2E/DX2 analytically  !
 ! R19   R(11,13)                1.0822         calculate D2E/DX2 analytically  !
 ! R20   R(14,15)                1.2556         calculate D2E/DX2 analytically  !
 ! R21   R(15,16)                1.4037         calculate D2E/DX2 analytically  !
 ! R22   R(16,17)                1.395          calculate D2E/DX2 analytically  !
 ! R23   R(16,18)                1.3992         calculate D2E/DX2 analytically  !
 ! R24   R(17,19)                1.3801         calculate D2E/DX2 analytically  !
 ! R25   R(17,20)                1.0837         calculate D2E/DX2 analytically  !
 ! R26   R(18,21)                1.3766         calculate D2E/DX2 analytically  !
 ! R27   R(18,22)                1.0814         calculate D2E/DX2 analytically  !
 ! R28   R(19,23)                1.4015         calculate D2E/DX2 analytically  !
 ! R29   R(19,24)                1.0836         calculate D2E/DX2 analytically  !
 ! R30   R(21,23)                1.4068         calculate D2E/DX2 analytically  !
 ! R31   R(21,25)                1.084          calculate D2E/DX2 analytically  !
 ! R32   R(23,26)                1.3744         calculate D2E/DX2 analytically  !
 ! R33   R(26,27)                1.0081         calculate D2E/DX2 analytically  !
 ! R34   R(26,28)                1.0081         calculate D2E/DX2 analytically  !
 ! R35   R(29,40)                1.0175         calculate D2E/DX2 analytically  !
 ! R36   R(30,31)                0.9734         calculate D2E/DX2 analytically  !
 ! R37   R(32,33)                1.4808         calculate D2E/DX2 analytically  !
 ! R38   R(32,34)                1.4778         calculate D2E/DX2 analytically  !
 ! R39   R(32,35)                1.4805         calculate D2E/DX2 analytically  !
 ! R40   R(36,37)                1.4783         calculate D2E/DX2 analytically  !
 ! R41   R(36,38)                1.48           calculate D2E/DX2 analytically  !
 ! R42   R(36,39)                1.4783         calculate D2E/DX2 analytically  !
 ! A1    A(2,1,6)              118.5161         calculate D2E/DX2 analytically  !
 ! A2    A(2,1,14)             123.5087         calculate D2E/DX2 analytically  !
 ! A3    A(6,1,14)             117.9752         calculate D2E/DX2 analytically  !
 ! A4    A(1,2,3)              121.6669         calculate D2E/DX2 analytically  !
 ! A5    A(1,2,29)             120.4887         calculate D2E/DX2 analytically  !
 ! A6    A(3,2,29)             117.8444         calculate D2E/DX2 analytically  !
 ! A7    A(2,3,4)              118.2604         calculate D2E/DX2 analytically  !
 ! A8    A(2,3,7)              123.0236         calculate D2E/DX2 analytically  !
 ! A9    A(4,3,7)              118.7159         calculate D2E/DX2 analytically  !
 ! A10   A(3,4,5)              119.445          calculate D2E/DX2 analytically  !
 ! A11   A(3,4,8)              119.9924         calculate D2E/DX2 analytically  !
 ! A12   A(5,4,8)              120.5626         calculate D2E/DX2 analytically  !
 ! A13   A(4,5,6)              121.3763         calculate D2E/DX2 analytically  !
 ! A14   A(4,5,9)              119.1856         calculate D2E/DX2 analytically  !
 ! A15   A(6,5,9)              119.4381         calculate D2E/DX2 analytically  !
 ! A16   A(1,6,5)              120.7351         calculate D2E/DX2 analytically  !
 ! A17   A(1,6,36)             121.8838         calculate D2E/DX2 analytically  !
 ! A18   A(5,6,36)             117.3811         calculate D2E/DX2 analytically  !
 ! A19   A(3,7,11)             120.0266         calculate D2E/DX2 analytically  !
 ! A20   A(3,7,30)             122.5036         calculate D2E/DX2 analytically  !
 ! A21   A(11,7,30)            117.4698         calculate D2E/DX2 analytically  !
 ! A22   A(4,8,10)             119.5182         calculate D2E/DX2 analytically  !
 ! A23   A(4,8,12)             120.0647         calculate D2E/DX2 analytically  !
 ! A24   A(10,8,12)            120.417          calculate D2E/DX2 analytically  !
 ! A25   A(8,10,11)            121.6032         calculate D2E/DX2 analytically  !
 ! A26   A(8,10,32)            120.1655         calculate D2E/DX2 analytically  !
 ! A27   A(11,10,32)           118.2298         calculate D2E/DX2 analytically  !
 ! A28   A(7,11,10)            120.1437         calculate D2E/DX2 analytically  !
 ! A29   A(7,11,13)            118.7991         calculate D2E/DX2 analytically  !
 ! A30   A(10,11,13)           121.0571         calculate D2E/DX2 analytically  !
 ! A31   A(1,14,15)            116.7039         calculate D2E/DX2 analytically  !
 ! A32   A(14,15,16)           117.675          calculate D2E/DX2 analytically  !
 ! A33   A(15,16,17)           116.6698         calculate D2E/DX2 analytically  !
 ! A34   A(15,16,18)           124.1361         calculate D2E/DX2 analytically  !
 ! A35   A(17,16,18)           119.194          calculate D2E/DX2 analytically  !
 ! A36   A(16,17,19)           120.8092         calculate D2E/DX2 analytically  !
 ! A37   A(16,17,20)           119.1368         calculate D2E/DX2 analytically  !
 ! A38   A(19,17,20)           120.0539         calculate D2E/DX2 analytically  !
 ! A39   A(16,18,21)           120.1846         calculate D2E/DX2 analytically  !
 ! A40   A(16,18,22)           119.5987         calculate D2E/DX2 analytically  !
 ! A41   A(21,18,22)           120.2167         calculate D2E/DX2 analytically  !
 ! A42   A(17,19,23)           120.3371         calculate D2E/DX2 analytically  !
 ! A43   A(17,19,24)           120.0822         calculate D2E/DX2 analytically  !
 ! A44   A(23,19,24)           119.5807         calculate D2E/DX2 analytically  !
 ! A45   A(18,21,23)           120.9016         calculate D2E/DX2 analytically  !
 ! A46   A(18,21,25)           119.8186         calculate D2E/DX2 analytically  !
 ! A47   A(23,21,25)           119.2797         calculate D2E/DX2 analytically  !
 ! A48   A(19,23,21)           118.5734         calculate D2E/DX2 analytically  !
 ! A49   A(19,23,26)           120.8504         calculate D2E/DX2 analytically  !
 ! A50   A(21,23,26)           120.5367         calculate D2E/DX2 analytically  !
 ! A51   A(23,26,27)           117.6958         calculate D2E/DX2 analytically  !
 ! A52   A(23,26,28)           117.7554         calculate D2E/DX2 analytically  !
 ! A53   A(27,26,28)           114.1664         calculate D2E/DX2 analytically  !
 ! A54   A(2,29,40)            106.647          calculate D2E/DX2 analytically  !
 ! A55   A(7,30,31)            109.2466         calculate D2E/DX2 analytically  !
 ! A56   A(10,32,33)           105.3796         calculate D2E/DX2 analytically  !
 ! A57   A(10,32,34)           105.9672         calculate D2E/DX2 analytically  !
 ! A58   A(10,32,35)           105.4306         calculate D2E/DX2 analytically  !
 ! A59   A(33,32,34)           113.2031         calculate D2E/DX2 analytically  !
 ! A60   A(33,32,35)           112.7081         calculate D2E/DX2 analytically  !
 ! A61   A(34,32,35)           113.2531         calculate D2E/DX2 analytically  !
 ! A62   A(6,36,37)            106.3436         calculate D2E/DX2 analytically  !
 ! A63   A(6,36,38)            104.5213         calculate D2E/DX2 analytically  !
 ! A64   A(6,36,39)            106.3792         calculate D2E/DX2 analytically  !
 ! A65   A(37,36,38)           112.4073         calculate D2E/DX2 analytically  !
 ! A66   A(37,36,39)           113.9339         calculate D2E/DX2 analytically  !
 ! A67   A(38,36,39)           112.4034         calculate D2E/DX2 analytically  !
 ! D1    D(6,1,2,3)              0.0125         calculate D2E/DX2 analytically  !
 ! D2    D(6,1,2,29)           179.9922         calculate D2E/DX2 analytically  !
 ! D3    D(14,1,2,3)          -179.9444         calculate D2E/DX2 analytically  !
 ! D4    D(14,1,2,29)            0.0353         calculate D2E/DX2 analytically  !
 ! D5    D(2,1,6,5)             -0.0825         calculate D2E/DX2 analytically  !
 ! D6    D(2,1,6,36)           179.8939         calculate D2E/DX2 analytically  !
 ! D7    D(14,1,6,5)           179.8768         calculate D2E/DX2 analytically  !
 ! D8    D(14,1,6,36)           -0.1468         calculate D2E/DX2 analytically  !
 ! D9    D(2,1,14,15)            0.0574         calculate D2E/DX2 analytically  !
 ! D10   D(6,1,14,15)         -179.8997         calculate D2E/DX2 analytically  !
 ! D11   D(1,2,3,4)              0.0834         calculate D2E/DX2 analytically  !
 ! D12   D(1,2,3,7)           -179.9531         calculate D2E/DX2 analytically  !
 ! D13   D(29,2,3,4)          -179.8967         calculate D2E/DX2 analytically  !
 ! D14   D(29,2,3,7)             0.0668         calculate D2E/DX2 analytically  !
 ! D15   D(1,2,29,40)           -0.069          calculate D2E/DX2 analytically  !
 ! D16   D(3,2,29,40)          179.9114         calculate D2E/DX2 analytically  !
 ! D17   D(2,3,4,5)             -0.1119         calculate D2E/DX2 analytically  !
 ! D18   D(2,3,4,8)            179.8965         calculate D2E/DX2 analytically  !
 ! D19   D(7,3,4,5)            179.923          calculate D2E/DX2 analytically  !
 ! D20   D(7,3,4,8)             -0.0686         calculate D2E/DX2 analytically  !
 ! D21   D(2,3,7,11)          -179.9151         calculate D2E/DX2 analytically  !
 ! D22   D(2,3,7,30)             0.0447         calculate D2E/DX2 analytically  !
 ! D23   D(4,3,7,11)             0.0483         calculate D2E/DX2 analytically  !
 ! D24   D(4,3,7,30)          -179.9919         calculate D2E/DX2 analytically  !
 ! D25   D(3,4,5,6)              0.0455         calculate D2E/DX2 analytically  !
 ! D26   D(3,4,5,9)           -179.9325         calculate D2E/DX2 analytically  !
 ! D27   D(8,4,5,6)           -179.9629         calculate D2E/DX2 analytically  !
 ! D28   D(8,4,5,9)              0.059          calculate D2E/DX2 analytically  !
 ! D29   D(3,4,8,10)             0.0213         calculate D2E/DX2 analytically  !
 ! D30   D(3,4,8,12)          -179.875          calculate D2E/DX2 analytically  !
 ! D31   D(5,4,8,10)          -179.9702         calculate D2E/DX2 analytically  !
 ! D32   D(5,4,8,12)             0.1335         calculate D2E/DX2 analytically  !
 ! D33   D(4,5,6,1)              0.0538         calculate D2E/DX2 analytically  !
 ! D34   D(4,5,6,36)          -179.9237         calculate D2E/DX2 analytically  !
 ! D35   D(9,5,6,1)           -179.9682         calculate D2E/DX2 analytically  !
 ! D36   D(9,5,6,36)             0.0544         calculate D2E/DX2 analytically  !
 ! D37   D(1,6,36,37)          -60.8359         calculate D2E/DX2 analytically  !
 ! D38   D(1,6,36,38)         -179.9338         calculate D2E/DX2 analytically  !
 ! D39   D(1,6,36,39)           60.9563         calculate D2E/DX2 analytically  !
 ! D40   D(5,6,36,37)          119.1413         calculate D2E/DX2 analytically  !
 ! D41   D(5,6,36,38)            0.0433         calculate D2E/DX2 analytically  !
 ! D42   D(5,6,36,39)         -119.0665         calculate D2E/DX2 analytically  !
 ! D43   D(3,7,11,10)            0.0191         calculate D2E/DX2 analytically  !
 ! D44   D(3,7,11,13)          179.8646         calculate D2E/DX2 analytically  !
 ! D45   D(30,7,11,10)        -179.9427         calculate D2E/DX2 analytically  !
 ! D46   D(30,7,11,13)          -0.0971         calculate D2E/DX2 analytically  !
 ! D47   D(3,7,30,31)           -0.0542         calculate D2E/DX2 analytically  !
 ! D48   D(11,7,30,31)         179.9066         calculate D2E/DX2 analytically  !
 ! D49   D(4,8,10,11)            0.0482         calculate D2E/DX2 analytically  !
 ! D50   D(4,8,10,32)          179.5931         calculate D2E/DX2 analytically  !
 ! D51   D(12,8,10,11)         179.9441         calculate D2E/DX2 analytically  !
 ! D52   D(12,8,10,32)          -0.511          calculate D2E/DX2 analytically  !
 ! D53   D(8,10,11,7)           -0.0691         calculate D2E/DX2 analytically  !
 ! D54   D(8,10,11,13)        -179.9111         calculate D2E/DX2 analytically  !
 ! D55   D(32,10,11,7)        -179.6225         calculate D2E/DX2 analytically  !
 ! D56   D(32,10,11,13)          0.5355         calculate D2E/DX2 analytically  !
 ! D57   D(8,10,32,33)        -117.1179         calculate D2E/DX2 analytically  !
 ! D58   D(8,10,32,34)           3.1289         calculate D2E/DX2 analytically  !
 ! D59   D(8,10,32,35)         123.4581         calculate D2E/DX2 analytically  !
 ! D60   D(11,10,32,33)         62.4422         calculate D2E/DX2 analytically  !
 ! D61   D(11,10,32,34)       -177.3111         calculate D2E/DX2 analytically  !
 ! D62   D(11,10,32,35)        -56.9819         calculate D2E/DX2 analytically  !
 ! D63   D(1,14,15,16)         179.9447         calculate D2E/DX2 analytically  !
 ! D64   D(14,15,16,17)       -179.7252         calculate D2E/DX2 analytically  !
 ! D65   D(14,15,16,18)          0.1393         calculate D2E/DX2 analytically  !
 ! D66   D(15,16,17,19)        179.8977         calculate D2E/DX2 analytically  !
 ! D67   D(15,16,17,20)          0.0024         calculate D2E/DX2 analytically  !
 ! D68   D(18,16,17,19)          0.0262         calculate D2E/DX2 analytically  !
 ! D69   D(18,16,17,20)       -179.8691         calculate D2E/DX2 analytically  !
 ! D70   D(15,16,18,21)       -179.9167         calculate D2E/DX2 analytically  !
 ! D71   D(15,16,18,22)          0.0159         calculate D2E/DX2 analytically  !
 ! D72   D(17,16,18,21)         -0.0554         calculate D2E/DX2 analytically  !
 ! D73   D(17,16,18,22)        179.8772         calculate D2E/DX2 analytically  !
 ! D74   D(16,17,19,23)         -0.0305         calculate D2E/DX2 analytically  !
 ! D75   D(16,17,19,24)        179.986          calculate D2E/DX2 analytically  !
 ! D76   D(20,17,19,23)        179.8638         calculate D2E/DX2 analytically  !
 ! D77   D(20,17,19,24)         -0.1196         calculate D2E/DX2 analytically  !
 ! D78   D(16,18,21,23)          0.0894         calculate D2E/DX2 analytically  !
 ! D79   D(16,18,21,25)       -179.9126         calculate D2E/DX2 analytically  !
 ! D80   D(22,18,21,23)       -179.8428         calculate D2E/DX2 analytically  !
 ! D81   D(22,18,21,25)          0.1553         calculate D2E/DX2 analytically  !
 ! D82   D(17,19,23,21)          0.062          calculate D2E/DX2 analytically  !
 ! D83   D(17,19,23,26)        177.7913         calculate D2E/DX2 analytically  !
 ! D84   D(24,19,23,21)       -179.9544         calculate D2E/DX2 analytically  !
 ! D85   D(24,19,23,26)         -2.2252         calculate D2E/DX2 analytically  !
 ! D86   D(18,21,23,19)         -0.0919         calculate D2E/DX2 analytically  !
 ! D87   D(18,21,23,26)       -177.8286         calculate D2E/DX2 analytically  !
 ! D88   D(25,21,23,19)        179.91           calculate D2E/DX2 analytically  !
 ! D89   D(25,21,23,26)          2.1734         calculate D2E/DX2 analytically  !
 ! D90   D(19,23,26,27)         19.5086         calculate D2E/DX2 analytically  !
 ! D91   D(19,23,26,28)        162.5159         calculate D2E/DX2 analytically  !
 ! D92   D(21,23,26,27)       -162.8067         calculate D2E/DX2 analytically  !
 ! D93   D(21,23,26,28)        -19.7994         calculate D2E/DX2 analytically  !
 --------------------------------------------------------------------------------
 Trust Radius=3.00D-01 FncErr=1.00D-07 GrdErr=1.00D-07 EigMax=2.50D+02 EigMin=1.00D-04
 Number of steps in this run=      2 maximum allowed number of steps=      2.
 GradGradGradGradGradGradGradGradGradGradGradGradGradGradGradGradGradGrad

                          Input orientation:                          
 ---------------------------------------------------------------------
 Center     Atomic      Atomic             Coordinates (Angstroms)
 Number     Number       Type             X           Y           Z
 ---------------------------------------------------------------------
      1          6           0        0.758597    0.268382    0.002795
      2          6           0       -0.030734   -0.881964    0.003759
      3          6           0       -1.453506   -0.812636    0.001316
      4          6           0       -2.062531    0.465900   -0.003983
      5          6           0       -1.245305    1.629377   -0.004260
      6          6           0        0.109094    1.541609   -0.000468
      7          6           0       -2.289763   -1.971558    0.003203
      8          6           0       -3.468522    0.577081   -0.008748
      9          1           0       -1.714550    2.603086   -0.007203
     10          6           0       -4.234037   -0.556140   -0.007762
     11          6           0       -3.655937   -1.833113   -0.001104
     12          1           0       -3.934784    1.552743   -0.014839
     13          1           0       -4.270208   -2.724030   -0.001815
     14          7           0        2.153503    0.245302    0.003972
     15          7           0        2.699120   -0.885581    0.004882
     16          6           0        4.102049   -0.932588    0.004876
     17          6           0        4.686081   -2.199398   -0.000083
     18          6           0        4.925543    0.198563    0.006738
     19          6           0        6.058505   -2.345054   -0.002602
     20          1           0        4.047408   -3.074831   -0.003684
     21          6           0        6.294882    0.057770    0.004849
     22          1           0        4.479753    1.183761    0.008564
     23          6           0        6.890114   -1.216900   -0.000848
     24          1           0        6.499649   -3.334765   -0.006226
     25          1           0        6.927288    0.938198    0.007744
     26          7           0        8.257424   -1.349300    0.042151
     27          1           0        8.650824   -2.237752   -0.226596
     28          1           0        8.814821   -0.553190   -0.225670
     29          8           0        0.537269   -2.097022    0.006641
     30          8           0       -1.790438   -3.227394    0.008360
     31          1           0       -0.817967   -3.186017    0.009512
     32         16           0       -6.029338   -0.434555   -0.002737
     33          8           0       -6.461655   -1.058562    1.268620
     34          8           0       -6.339283    1.008424   -0.078031
     35          8           0       -6.478764   -1.191775   -1.192863
     36         16           0        1.045542    3.094661    0.000896
     37          8           0        1.848483    3.095167    1.242078
     38          8           0        0.010252    4.152242   -0.001693
     39          8           0        1.854267    3.094889   -1.236538
     40          1           0        1.543838   -1.948247    0.006544
 ---------------------------------------------------------------------
                    Distance matrix (angstroms):
                    1          2          3          4          5
     1  C    0.000000
     2  C    1.395113   0.000000
     3  C    2.462113   1.424462   0.000000
     4  C    2.828042   2.438236   1.416190   0.000000
     5  C    2.422391   2.789638   2.450879   1.421808   0.000000
     6  C    1.429325   2.427606   2.825631   2.423452   1.357245
     7  C    3.782834   2.508073   1.429136   2.448037   3.749358
     8  C    4.238391   3.734615   2.447796   1.410387   2.459683
     9  H    3.401088   3.870520   3.425693   2.165333   1.080883
    10  C    5.060271   4.215928   2.792351   2.400003   3.702569
    11  C    4.889213   3.747907   2.427362   2.797215   4.219004
    12  H    4.865975   4.601059   3.428122   2.164873   2.690591
    13  H    5.851788   4.622378   3.404005   3.879367   5.301150
    14  N    1.395097   2.457970   3.758956   4.221809   3.669826
    15  N    2.257712   2.729856   4.153267   4.949737   4.677989
    16  C    3.552606   4.133093   5.556851   6.321226   5.929414
    17  C    4.638436   4.897346   6.294255   7.255867   7.059808
    18  C    4.167533   5.072695   6.458701   6.993195   6.334565
    19  C    5.909239   6.262548   7.666722   8.593759   8.315152
    20  H    4.689711   4.630331   5.947907   7.061737   7.081129
    21  C    5.540290   6.395039   7.797123   8.367378   7.702237
    22  H    3.832095   4.961021   6.260129   6.581563   5.742389
    23  C    6.308849   6.928950   8.353408   9.109428   8.618953
    24  H    6.778084   6.975832   8.343491   9.367816   9.199294
    25  H    6.204952   7.192153   8.561726   9.002225   8.201777
    26  N    7.671431   8.301412   9.725833  10.478481   9.958741
    27  H    8.283753   8.789805  10.206878  11.051482  10.627205
    28  H    8.101230   8.854635  10.274111  10.927236  10.296541
    29  O    2.375739   1.341269   2.369147   3.650704   4.130828
    30  O    4.326438   2.932171   2.438161   3.703324   4.887285
    31  H    3.797166   2.434837   2.457013   3.858188   4.834338
    32  S    6.824237   6.015270   4.591428   4.067724   5.210259
    33  O    7.449506   6.556509   5.171857   4.826571   6.004628
    34  O    7.136813   6.586201   5.214727   4.311661   5.132216
    35  O    7.479375   6.565438   5.179096   4.864610   6.063066
    36  S    2.840809   4.119699   4.638126   4.070691   2.719386
    37  O    3.273284   4.569733   5.264366   4.874603   3.643271
    38  O    3.955301   5.034375   5.176157   4.229131   2.818027
    39  O    3.274993   4.572409   5.267105   4.875662   3.643292
    40  H    2.351609   1.901643   3.205262   4.339829   4.536390
                    6          7          8          9         10
     6  C    0.000000
     7  C    4.254042   0.000000
     8  C    3.705363   2.808056   0.000000
     9  H    2.110085   4.610678   2.679760   0.000000
    10  C    4.823213   2.404939   1.367554   4.040857   0.000000
    11  C    5.056106   1.373178   2.417482   4.842405   1.401750
    12  H    4.043919   3.889359   1.081367   2.456159   2.130021
    13  H    6.113424   2.118584   3.397069   5.908433   2.168200
    14  N    2.420751   4.965589   5.631820   4.530022   6.437632
    15  N    3.549579   5.105712   6.338720   5.625960   6.940990
    16  C    4.697379   6.475703   7.719639   6.806906   8.344591
    17  C    5.911340   6.979565   8.614317   8.001999   9.070219
    18  C    5.000201   7.534592   8.402609   7.062065   9.190631
    19  C    7.106451   8.356621   9.965097   9.214364  10.446849
    20  H    6.068100   6.432495   8.356176   8.089432   8.655989
    21  C    6.361272   8.821242   9.777214   8.404153  10.546809
    22  H    4.385293   7.468763   7.971413   6.354850   8.885812
    23  C    7.320628   9.210845  10.512838   9.414488  11.143760
    24  H    8.038547   8.894503  10.708266  10.135637  11.087505
    25  H    6.844847   9.665440  10.402093   8.800763  11.260926
    26  N    8.646065  10.565599  11.883238  10.726792  12.516716
    27  H    9.343224  10.946237  12.443845  11.442151  12.995974
    28  H    8.957040  11.197139  12.337142  10.994428  13.050677
    29  O    3.663743   2.829816   4.816370   5.211707   5.013969
    30  O    5.133390   1.351472   4.158159   5.830995   3.620364
    31  H    4.817674   1.908175   4.602899   5.858144   4.311158
    32  S    6.448688   4.043122   2.753402   5.276806   1.799421
    33  O    7.179570   4.454158   3.642231   6.129470   2.616078
    34  O    6.470848   5.028470   2.903813   4.892455   2.623902
    35  O    7.231395   4.425649   3.686806   6.205199   2.616734
    36  S    1.813535   6.065545   5.168662   2.803537   6.418907
    37  O    2.642525   6.658198   6.014638   3.807631   7.203554
    38  O    2.612504   6.541484   4.988355   2.318373   6.338997
    39  O    2.643138   6.661744   6.014890   3.806519   7.204675
    40  H    3.773279   3.833673   5.612599   5.597492   5.943232
                   11         12         13         14         15
    11  C    0.000000
    12  H    3.397347   0.000000
    13  H    1.082156   4.289926   0.000000
    14  N    6.170043   6.227117   7.076794   0.000000
    15  N    6.425309   7.067849   7.207736   1.255625   0.000000
    16  C    7.810079   8.412369   8.561775   2.276897   1.403717
    17  C    8.350056   9.402026   8.971642   3.520019   2.382049
    18  C    8.818706   8.963240   9.649013   2.772436   2.476355
    19  C    9.727923  10.726546  10.335663   4.686046   3.662730
    20  H    7.802781   9.226589   8.325010   3.822331   2.571142
    21  C   10.128883  10.338346  10.925181   4.145623   3.717448
    22  H    8.677043   8.422656   9.582940   2.508419   2.729990
    23  C   10.564039  11.173609  11.261626   4.957171   4.204074
    24  H   10.266007  11.522378  10.787160   5.630805   4.521354
    25  H   10.940059  10.879466  11.781167   4.823810   4.604735
    26  N   11.923259  12.532958  12.602911   6.308888   5.577739
    27  H   12.315476  13.145730  12.932132   6.959447   6.107760
    28  H   12.538279  12.924079  13.265769   6.712934   6.129065
    29  O    4.201510   5.772391   4.848200   2.845821   2.478143
    30  O    2.328990   5.239128   2.530363   5.254932   5.063618
    31  H    3.143968   5.671947   3.483034   4.539120   4.202609
    32  S    2.754814   2.887327   2.887254   8.211037   8.740106
    33  O    3.175560   3.853733   3.031539   8.804563   9.249149
    34  O    3.909041   2.466150   4.268266   8.527397   9.235088
    35  O    3.130488   3.923258   2.940088   8.832533   9.260772
    36  S    6.810790   5.213579   7.881267   3.057194   4.310066
    37  O    7.492135   6.115970   8.535145   3.122127   4.254479
    38  O    7.018932   4.724497   8.099718   4.456202   5.710492
    39  O    7.494921   6.114235   8.537771   3.122268   4.254297
    40  H    5.201055   6.501745   5.865580   2.276699   1.569694
                   16         17         18         19         20
    16  C    0.000000
    17  C    1.394964   0.000000
    18  C    1.399160   2.409897   0.000000
    19  C    2.413055   1.380134   2.784542   0.000000
    20  H    2.142957   1.083651   3.389150   2.139414   0.000000
    21  C    2.406102   2.771835   1.376559   2.414434   3.855438
    22  H    2.149792   3.389456   1.081364   3.865891   4.280500
    23  C    2.802530   2.413102   2.421390   1.401537   3.396012
    24  H    3.393974   2.139654   3.868123   1.083582   2.465980
    25  H    3.388484   3.855849   2.134020   3.396267   4.939457
    26  N    4.176383   3.671367   3.674039   2.414285   4.550142
    27  H    4.737972   3.971393   4.457329   2.604189   4.684211
    28  H    4.733636   4.450548   3.968076   3.295119   5.397794
    29  O    3.750142   4.150081   4.952440   5.526813   3.643802
    30  O    6.323571   6.557603   7.539336   7.898390   5.839851
    31  H    5.411517   5.591785   6.666580   6.927715   4.866663
    32  S   10.143624  10.859784  10.973165  12.237891  10.416903
    33  O   10.639773  11.277550  11.525667  12.650118  10.776108
    34  O   10.620538  11.482808  11.294219  12.843546  11.160728
    35  O   10.651543  11.273500  11.551204  12.646339  10.759198
    36  S    5.055788   6.424998   4.841677   7.397318   6.861039
    37  O    4.778289   6.134114   4.402804   6.990673   6.667539
    38  O    6.526741   7.887124   6.308070   8.876723   8.278237
    39  O    4.776422   6.130047   4.400816   6.985069   6.662975
    40  H    2.752456   3.152272   4.005587   4.532081   2.745388
                   21         22         23         24         25
    21  C    0.000000
    22  H    2.136016   0.000000
    23  C    1.406811   3.401926   0.000000
    24  H    3.398727   4.949472   2.153565   0.000000
    25  H    1.084020   2.459823   2.155435   4.294331   0.000000
    26  N    2.415121   4.548442   1.374378   2.652204   2.646336
    27  H    3.297491   5.399989   2.047730   2.424780   3.621069
    28  H    2.603171   4.675968   2.048304   3.625649   2.416920
    29  O    6.147621   5.129008   6.413526   6.089511   7.074242
    30  O    8.727240   7.666393   8.910340   8.290795   9.661827
    31  H    7.817595   6.867372   7.955630   7.319144   8.774857
    32  S   12.334052  10.632971  12.943118  12.860278  13.029149
    33  O   12.867500  11.239669  13.412918  13.221260  13.595611
    34  O   12.670152  10.820804  13.415475  13.553841  13.267034
    35  O   12.890381  11.277220  13.421939  13.207563  13.627196
    36  S    6.064512   3.930065   7.262823   8.431183   6.264609
    37  O    5.525123   3.478306   6.749580   8.033407   5.654233
    38  O    7.500755   5.365485   8.726981   9.907954   7.627290
    39  O    5.521250   3.477911   6.743754   8.027060   5.651115
    40  H    5.157182   4.292910   5.396072   5.146130   6.108445
                   26         27         28         29         30
    26  N    0.000000
    27  H    1.008134   0.000000
    28  H    1.008073   1.692525   0.000000
    29  O    7.756362   8.118127   8.423494   0.000000
    30  O   10.221933  10.490689  10.939728   2.587656   0.000000
    31  H    9.259444   9.519084   9.988878   1.738557   0.973352
    32  S   14.316087  14.792187  14.846307   6.773789   5.076253
    33  O   14.772950  15.231979  15.357702   7.187205   5.302108
    34  O   14.786385  15.338287  15.235068   7.545723   6.216238
    35  O   14.788689  15.196453  15.337438   7.175165   5.250436
    36  S    8.471230   9.291216   8.586027   5.216507   6.929013
    37  O    7.890984   8.767489   7.999666   5.495854   7.398553
    38  O    9.913866  10.749050   9.985574   6.271452   7.596158
    39  O    7.898499   8.697714   7.923361   5.498719   7.403034
    40  H    6.740345   7.116700   7.407246   1.017504   3.571220
                   31         32         33         34         35
    31  H    0.000000
    32  S    5.893138   0.000000
    33  O    6.161382   1.480754   0.000000
    34  O    6.934402   1.477810   2.469996   0.000000
    35  O    6.121056   1.480462   2.465144   2.470462   0.000000
    36  S    6.551309   7.906283   8.672623   7.674259   8.741497
    37  O    6.934150   8.721730   9.290456   8.552000   9.677286
    38  O    7.384856   7.583887   8.405459   7.085620   8.490272
    39  O    6.938534   8.725277   9.627125   8.534034   9.371062
    40  H    2.666496   7.722975   8.153054   8.419778   8.146961
                   36         37         38         39         40
    36  S    0.000000
    37  O    1.478259   0.000000
    38  O    1.479969   2.458347   0.000000
    39  O    1.478269   2.478623   2.458298   0.000000
    40  H    5.067471   5.201479   6.290304   5.203349   0.000000
 Stoichiometry    C16H11N3O8S2(2-)
 Framework group  C1[X(C16H11N3O8S2)]
 Deg. of freedom   114
 Full point group                 C1      NOp   1
 Largest Abelian subgroup         C1      NOp   1
 Largest concise Abelian subgroup C1      NOp   1
                         Standard orientation:                         
 ---------------------------------------------------------------------
 Center     Atomic      Atomic             Coordinates (Angstroms)
 Number     Number       Type             X           Y           Z
 ---------------------------------------------------------------------
      1          6           0        0.758581    0.268391    0.002828
      2          6           0       -0.030755   -0.881951    0.003792
      3          6           0       -1.453527   -0.812617    0.001349
      4          6           0       -2.062546    0.465921   -0.003950
      5          6           0       -1.245314    1.629395   -0.004227
      6          6           0        0.109084    1.541620   -0.000435
      7          6           0       -2.289790   -1.971536    0.003236
      8          6           0       -3.468536    0.577109   -0.008715
      9          1           0       -1.714555    2.603106   -0.007170
     10          6           0       -4.234057   -0.556108   -0.007729
     11          6           0       -3.655963   -1.833084   -0.001071
     12          1           0       -3.934794    1.552773   -0.014806
     13          1           0       -4.270238   -2.723998   -0.001782
     14          7           0        2.153487    0.245304    0.004006
     15          7           0        2.699098   -0.885582    0.004915
     16          6           0        4.102028   -0.932596    0.004909
     17          6           0        4.686054   -2.199408   -0.000050
     18          6           0        4.925527    0.198552    0.006772
     19          6           0        6.058477   -2.345070   -0.002569
     20          1           0        4.047376   -3.074838   -0.003651
     21          6           0        6.294865    0.057752    0.004883
     22          1           0        4.479741    1.183752    0.008597
     23          6           0        6.890091   -1.216920   -0.000815
     24          1           0        6.499616   -3.334783   -0.006192
     25          1           0        6.927275    0.938177    0.007777
     26          7           0        8.257400   -1.349327    0.042184
     27          1           0        8.650796   -2.237780   -0.226562
     28          1           0        8.814801   -0.553220   -0.225636
     29          8           0        0.537242   -2.097012    0.006674
     30          8           0       -1.790471   -3.227374    0.008394
     31          1           0       -0.817999   -3.186001    0.009545
     32         16           0       -6.029358   -0.434515   -0.002703
     33          8           0       -6.461677   -1.058520    1.268653
     34          8           0       -6.339296    1.008466   -0.077998
     35          8           0       -6.478787   -1.191733   -1.192830
     36         16           0        1.045539    3.094668    0.000929
     37          8           0        1.848480    3.095170    1.242111
     38          8           0        0.010254    4.152254   -0.001660
     39          8           0        1.854264    3.094892   -1.236505
     40          1           0        1.543811   -1.948243    0.006578
 ---------------------------------------------------------------------
 Rotational constants (GHZ):           0.2954410           0.0646991           0.0541898
 Standard basis: 6-311++G(d,p) (5D, 7F)
 There are   760 symmetry adapted cartesian basis functions of A   symmetry.
 There are   731 symmetry adapted basis functions of A   symmetry.
   731 basis functions,  1171 primitive gaussians,   760 cartesian basis functions
   113 alpha electrons      113 beta electrons
       nuclear repulsion energy      3041.9871035520 Hartrees.
 NAtoms=   40 NActive=   40 NUniq=   40 SFac= 1.00D+00 NAtFMM=   60 NAOKFM=F Big=F
 Integral buffers will be    131072 words long.
 Raffenetti 2 integral format.
 Two-electron integral symmetry is turned on.
 Force inversion solution in PCM.
 ------------------------------------------------------------------------------
 Polarizable Continuum Model (PCM)
 =================================
 Model                : PCM.
 Atomic radii         : UFF (Universal Force Field).
 Polarization charges : Total charges.
 Charge compensation  : None.
 Solution method      : Matrix inversion.
 Cavity type          : Scaled VdW (van der Waals Surface) (Alpha=1.100).
 Cavity algorithm     : GePol (No added spheres)
                        Default sphere list used, NSphG=   40.
                        Lebedev-Laikov grids with approx.  5.0 points / Ang**2.
                        Smoothing algorithm: York/Karplus (Gamma=1.0000).
                        Polarization charges: spherical gaussians, with
                                              point-specific exponents (IZeta= 3).
                        Self-potential: point-specific (ISelfS= 7).
                        Self-field    : sphere-specific E.n sum rule (ISelfD= 2).
 1st derivatives      : Analytical E(r).r(x)/FMM algorithm (CHGder, D1EAlg=3).
                        Cavity 1st derivative terms included.
 2nd derivatives      : Analytical E(r).r(xy)/FMM algorithm (CHGder, D2EAlg=3).
                        Cavity 2nd derivative terms included.
 Solvent              : Water, Eps=  78.355300 Eps(inf)=   1.777849
 ------------------------------------------------------------------------------
 One-electron integrals computed using PRISM.
 PrsmSu:  requested number of processors reduced to:  23 ShMem   1 Linda.
 NBasis=   731 RedAO= T EigKep=  1.27D-06  NBF=   731
 NBsUse=   721 1.00D-06 EigRej=  9.00D-07 NBFU=   721
 Initial guess from the checkpoint file:  "AV3_OH.chk"
 B after Tr=    -0.000000    0.000000    0.000000
         Rot=    1.000000   -0.000000   -0.000000    0.000000 Ang=   0.00 deg.
 Requested convergence on RMS density matrix=1.00D-08 within 128 cycles.
 Requested convergence on MAX density matrix=1.00D-06.
 Requested convergence on             energy=1.00D-06.
 No special actions if energy rises.
 CoulSu:  requested number of processors reduced to:  32 ShMem   1 Linda.
 Inv3:  Mode=1 IEnd=    36352083.
 Iteration    1 A*A^-1 deviation from unit magnitude is 3.00D-15 for    297.
 Iteration    1 A*A^-1 deviation from orthogonality  is 2.21D-15 for    919     80.
 Iteration    1 A^-1*A deviation from unit magnitude is 3.33D-15 for   3307.
 Iteration    1 A^-1*A deviation from orthogonality  is 1.91D-15 for   2664   2546.
 CoulSu:  requested number of processors reduced to:  32 ShMem   1 Linda.
 CoulSu:  requested number of processors reduced to:  32 ShMem   1 Linda.
 Error on total polarization charges =  0.02664
 SCF Done:  E(RCAM-B3LYP) =  -2178.82689771     A.U. after    1 cycles
            NFock=  1  Conv=0.66D-08     -V/T= 2.0023
 DoSCS=F DFT=T ScalE2(SS,OS)=  1.000000  1.000000
 Range of M.O.s used for correlation:     1   721
 NBasis=   731 NAE=   113 NBE=   113 NFC=     0 NFV=     0
 NROrb=    721 NOA=   113 NOB=   113 NVA=   608 NVB=   608

 **** Warning!!: The largest alpha MO coefficient is  0.10623626D+03

 PrsmSu:  requested number of processors reduced to:  18 ShMem   1 Linda.
 PrsmSu:  requested number of processors reduced to:   2 ShMem   1 Linda.
 Symmetrizing basis deriv contribution to polar:
 IMax=3 JMax=2 DiffMx= 0.00D+00
 G2DrvN: will do     1 centers at a time, making   41 passes.
 Estimated number of processors is:   24
 Calling FoFCou, ICntrl=  3107 FMM=F I1Cent=   0 AccDes= 0.00D+00.
 CoulSu:  requested number of processors reduced to:  30 ShMem   1 Linda.
 CoulSu:  requested number of processors reduced to:  30 ShMem   1 Linda.
 CalDSu:  requested number of processors reduced to:  32 ShMem   1 Linda.
 Calling FoFCou, ICntrl=  3107 FMM=F I1Cent=   0 AccDes= 0.00D+00.
 CoulSu:  requested number of processors reduced to:  24 ShMem   1 Linda.
 CoulSu:  requested number of processors reduced to:  24 ShMem   1 Linda.
 CalDSu:  requested number of processors reduced to:  32 ShMem   1 Linda.
 Calling FoFCou, ICntrl=  3107 FMM=F I1Cent=   0 AccDes= 0.00D+00.
 CoulSu:  requested number of processors reduced to:  24 ShMem   1 Linda.
 CoulSu:  requested number of processors reduced to:  24 ShMem   1 Linda.
 CalDSu:  requested number of processors reduced to:  32 ShMem   1 Linda.
 Calling FoFCou, ICntrl=  3107 FMM=F I1Cent=   0 AccDes= 0.00D+00.
 CoulSu:  requested number of processors reduced to:  24 ShMem   1 Linda.
 CoulSu:  requested number of processors reduced to:  24 ShMem   1 Linda.
 CalDSu:  requested number of processors reduced to:  32 ShMem   1 Linda.
 Calling FoFCou, ICntrl=  3107 FMM=F I1Cent=   0 AccDes= 0.00D+00.
 CoulSu:  requested number of processors reduced to:  24 ShMem   1 Linda.
 CoulSu:  requested number of processors reduced to:  24 ShMem   1 Linda.
 CalDSu:  requested number of processors reduced to:  32 ShMem   1 Linda.
 Calling FoFCou, ICntrl=  3107 FMM=F I1Cent=   0 AccDes= 0.00D+00.
 CoulSu:  requested number of processors reduced to:  24 ShMem   1 Linda.
 CoulSu:  requested number of processors reduced to:  24 ShMem   1 Linda.
 CalDSu:  requested number of processors reduced to:  32 ShMem   1 Linda.
 Calling FoFCou, ICntrl=  3107 FMM=F I1Cent=   0 AccDes= 0.00D+00.
 CoulSu:  requested number of processors reduced to:  24 ShMem   1 Linda.
 CoulSu:  requested number of processors reduced to:  24 ShMem   1 Linda.
 CalDSu:  requested number of processors reduced to:  32 ShMem   1 Linda.
 Calling FoFCou, ICntrl=  3107 FMM=F I1Cent=   0 AccDes= 0.00D+00.
 CoulSu:  requested number of processors reduced to:  24 ShMem   1 Linda.
 CoulSu:  requested number of processors reduced to:  24 ShMem   1 Linda.
 CalDSu:  requested number of processors reduced to:  32 ShMem   1 Linda.
 Calling FoFCou, ICntrl=  3107 FMM=F I1Cent=   0 AccDes= 0.00D+00.
 CoulSu:  requested number of processors reduced to:  24 ShMem   1 Linda.
 CoulSu:  requested number of processors reduced to:  24 ShMem   1 Linda.
 CalDSu:  requested number of processors reduced to:  32 ShMem   1 Linda.
 Calling FoFCou, ICntrl=  3107 FMM=F I1Cent=   0 AccDes= 0.00D+00.
 CoulSu:  requested number of processors reduced to:  24 ShMem   1 Linda.
 CoulSu:  requested number of processors reduced to:  24 ShMem   1 Linda.
 CalDSu:  requested number of processors reduced to:  32 ShMem   1 Linda.
 Calling FoFCou, ICntrl=  3107 FMM=F I1Cent=   0 AccDes= 0.00D+00.
 CoulSu:  requested number of processors reduced to:  24 ShMem   1 Linda.
 CoulSu:  requested number of processors reduced to:  24 ShMem   1 Linda.
 CalDSu:  requested number of processors reduced to:  32 ShMem   1 Linda.
 Calling FoFCou, ICntrl=  3107 FMM=F I1Cent=   0 AccDes= 0.00D+00.
 CoulSu:  requested number of processors reduced to:  24 ShMem   1 Linda.
 CoulSu:  requested number of processors reduced to:  24 ShMem   1 Linda.
 CalDSu:  requested number of processors reduced to:  32 ShMem   1 Linda.
 Calling FoFCou, ICntrl=  3107 FMM=F I1Cent=   0 AccDes= 0.00D+00.
 CoulSu:  requested number of processors reduced to:  24 ShMem   1 Linda.
 CoulSu:  requested number of processors reduced to:  24 ShMem   1 Linda.
 CalDSu:  requested number of processors reduced to:  32 ShMem   1 Linda.
 Calling FoFCou, ICntrl=  3107 FMM=F I1Cent=   0 AccDes= 0.00D+00.
 CoulSu:  requested number of processors reduced to:  24 ShMem   1 Linda.
 CoulSu:  requested number of processors reduced to:  24 ShMem   1 Linda.
 CalDSu:  requested number of processors reduced to:  32 ShMem   1 Linda.
 Calling FoFCou, ICntrl=  3107 FMM=F I1Cent=   0 AccDes= 0.00D+00.
 CoulSu:  requested number of processors reduced to:  24 ShMem   1 Linda.
 CoulSu:  requested number of processors reduced to:  24 ShMem   1 Linda.
 CalDSu:  requested number of processors reduced to:  32 ShMem   1 Linda.
 Calling FoFCou, ICntrl=  3107 FMM=F I1Cent=   0 AccDes= 0.00D+00.
 CoulSu:  requested number of processors reduced to:  24 ShMem   1 Linda.
 CoulSu:  requested number of processors reduced to:  24 ShMem   1 Linda.
 CalDSu:  requested number of processors reduced to:  32 ShMem   1 Linda.
 Calling FoFCou, ICntrl=  3107 FMM=F I1Cent=   0 AccDes= 0.00D+00.
 CoulSu:  requested number of processors reduced to:  24 ShMem   1 Linda.
 CoulSu:  requested number of processors reduced to:  24 ShMem   1 Linda.
 CalDSu:  requested number of processors reduced to:  32 ShMem   1 Linda.
 Calling FoFCou, ICntrl=  3107 FMM=F I1Cent=   0 AccDes= 0.00D+00.
 CoulSu:  requested number of processors reduced to:  24 ShMem   1 Linda.
 CoulSu:  requested number of processors reduced to:  24 ShMem   1 Linda.
 CalDSu:  requested number of processors reduced to:  32 ShMem   1 Linda.
 Calling FoFCou, ICntrl=  3107 FMM=F I1Cent=   0 AccDes= 0.00D+00.
 CoulSu:  requested number of processors reduced to:  24 ShMem   1 Linda.
 CoulSu:  requested number of processors reduced to:  24 ShMem   1 Linda.
 CalDSu:  requested number of processors reduced to:  32 ShMem   1 Linda.
 Calling FoFCou, ICntrl=  3107 FMM=F I1Cent=   0 AccDes= 0.00D+00.
 CoulSu:  requested number of processors reduced to:  24 ShMem   1 Linda.
 CoulSu:  requested number of processors reduced to:  24 ShMem   1 Linda.
 CalDSu:  requested number of processors reduced to:  32 ShMem   1 Linda.
 Calling FoFCou, ICntrl=  3107 FMM=F I1Cent=   0 AccDes= 0.00D+00.
 CoulSu:  requested number of processors reduced to:  24 ShMem   1 Linda.
 CoulSu:  requested number of processors reduced to:  24 ShMem   1 Linda.
 CalDSu:  requested number of processors reduced to:  32 ShMem   1 Linda.
 Calling FoFCou, ICntrl=  3107 FMM=F I1Cent=   0 AccDes= 0.00D+00.
 CoulSu:  requested number of processors reduced to:  24 ShMem   1 Linda.
 CoulSu:  requested number of processors reduced to:  24 ShMem   1 Linda.
 CalDSu:  requested number of processors reduced to:  32 ShMem   1 Linda.
 Calling FoFCou, ICntrl=  3107 FMM=F I1Cent=   0 AccDes= 0.00D+00.
 CoulSu:  requested number of processors reduced to:  24 ShMem   1 Linda.
 CoulSu:  requested number of processors reduced to:  24 ShMem   1 Linda.
 CalDSu:  requested number of processors reduced to:  32 ShMem   1 Linda.
 Calling FoFCou, ICntrl=  3107 FMM=F I1Cent=   0 AccDes= 0.00D+00.
 CoulSu:  requested number of processors reduced to:  24 ShMem   1 Linda.
 CoulSu:  requested number of processors reduced to:  24 ShMem   1 Linda.
 CalDSu:  requested number of processors reduced to:  32 ShMem   1 Linda.
 Calling FoFCou, ICntrl=  3107 FMM=F I1Cent=   0 AccDes= 0.00D+00.
 CoulSu:  requested number of processors reduced to:  24 ShMem   1 Linda.
 CoulSu:  requested number of processors reduced to:  24 ShMem   1 Linda.
 CalDSu:  requested number of processors reduced to:  32 ShMem   1 Linda.
 Calling FoFCou, ICntrl=  3107 FMM=F I1Cent=   0 AccDes= 0.00D+00.
 CoulSu:  requested number of processors reduced to:  24 ShMem   1 Linda.
 CoulSu:  requested number of processors reduced to:  24 ShMem   1 Linda.
 CalDSu:  requested number of processors reduced to:  32 ShMem   1 Linda.
 Calling FoFCou, ICntrl=  3107 FMM=F I1Cent=   0 AccDes= 0.00D+00.
 CoulSu:  requested number of processors reduced to:  24 ShMem   1 Linda.
 CoulSu:  requested number of processors reduced to:  24 ShMem   1 Linda.
 CalDSu:  requested number of processors reduced to:  32 ShMem   1 Linda.
 Calling FoFCou, ICntrl=  3107 FMM=F I1Cent=   0 AccDes= 0.00D+00.
 CoulSu:  requested number of processors reduced to:  24 ShMem   1 Linda.
 CoulSu:  requested number of processors reduced to:  24 ShMem   1 Linda.
 CalDSu:  requested number of processors reduced to:  32 ShMem   1 Linda.
 Calling FoFCou, ICntrl=  3107 FMM=F I1Cent=   0 AccDes= 0.00D+00.
 CoulSu:  requested number of processors reduced to:  24 ShMem   1 Linda.
 CoulSu:  requested number of processors reduced to:  24 ShMem   1 Linda.
 CalDSu:  requested number of processors reduced to:  32 ShMem   1 Linda.
 Calling FoFCou, ICntrl=  3107 FMM=F I1Cent=   0 AccDes= 0.00D+00.
 CoulSu:  requested number of processors reduced to:  24 ShMem   1 Linda.
 CoulSu:  requested number of processors reduced to:  24 ShMem   1 Linda.
 CalDSu:  requested number of processors reduced to:  32 ShMem   1 Linda.
 Calling FoFCou, ICntrl=  3107 FMM=F I1Cent=   0 AccDes= 0.00D+00.
 CoulSu:  requested number of processors reduced to:  24 ShMem   1 Linda.
 CoulSu:  requested number of processors reduced to:  24 ShMem   1 Linda.
 CalDSu:  requested number of processors reduced to:  32 ShMem   1 Linda.
 Calling FoFCou, ICntrl=  3107 FMM=F I1Cent=   0 AccDes= 0.00D+00.
 CoulSu:  requested number of processors reduced to:  24 ShMem   1 Linda.
 CoulSu:  requested number of processors reduced to:  24 ShMem   1 Linda.
 CalDSu:  requested number of processors reduced to:  32 ShMem   1 Linda.
 Calling FoFCou, ICntrl=  3107 FMM=F I1Cent=   0 AccDes= 0.00D+00.
 CoulSu:  requested number of processors reduced to:  24 ShMem   1 Linda.
 CoulSu:  requested number of processors reduced to:  24 ShMem   1 Linda.
 CalDSu:  requested number of processors reduced to:  32 ShMem   1 Linda.
 Calling FoFCou, ICntrl=  3107 FMM=F I1Cent=   0 AccDes= 0.00D+00.
 CoulSu:  requested number of processors reduced to:  24 ShMem   1 Linda.
 CoulSu:  requested number of processors reduced to:  24 ShMem   1 Linda.
 CalDSu:  requested number of processors reduced to:  32 ShMem   1 Linda.
 Calling FoFCou, ICntrl=  3107 FMM=F I1Cent=   0 AccDes= 0.00D+00.
 CoulSu:  requested number of processors reduced to:  24 ShMem   1 Linda.
 CoulSu:  requested number of processors reduced to:  24 ShMem   1 Linda.
 CalDSu:  requested number of processors reduced to:  32 ShMem   1 Linda.
 Calling FoFCou, ICntrl=  3107 FMM=F I1Cent=   0 AccDes= 0.00D+00.
 CoulSu:  requested number of processors reduced to:  24 ShMem   1 Linda.
 CoulSu:  requested number of processors reduced to:  24 ShMem   1 Linda.
 CalDSu:  requested number of processors reduced to:  32 ShMem   1 Linda.
 Calling FoFCou, ICntrl=  3107 FMM=F I1Cent=   0 AccDes= 0.00D+00.
 CoulSu:  requested number of processors reduced to:  24 ShMem   1 Linda.
 CoulSu:  requested number of processors reduced to:  24 ShMem   1 Linda.
 CalDSu:  requested number of processors reduced to:  32 ShMem   1 Linda.
 Calling FoFCou, ICntrl=  3107 FMM=F I1Cent=   0 AccDes= 0.00D+00.
 CoulSu:  requested number of processors reduced to:  24 ShMem   1 Linda.
 CoulSu:  requested number of processors reduced to:  24 ShMem   1 Linda.
 CalDSu:  requested number of processors reduced to:  32 ShMem   1 Linda.
 Calling FoFCou, ICntrl=  3107 FMM=F I1Cent=   0 AccDes= 0.00D+00.
 CoulSu:  requested number of processors reduced to:  24 ShMem   1 Linda.
 CoulSu:  requested number of processors reduced to:  24 ShMem   1 Linda.
 CalDSu:  requested number of processors reduced to:  32 ShMem   1 Linda.
 Calling FoFCou, ICntrl=  3107 FMM=F I1Cent=   0 AccDes= 0.00D+00.
 CoulSu:  requested number of processors reduced to:  24 ShMem   1 Linda.
 CoulSu:  requested number of processors reduced to:  24 ShMem   1 Linda.
 CalDSu:  requested number of processors reduced to:  32 ShMem   1 Linda.
 Calling FoFCou, ICntrl=  3107 FMM=F I1Cent=   0 AccDes= 0.00D+00.
 CoulSu:  requested number of processors reduced to:  24 ShMem   1 Linda.
 CoulSu:  requested number of processors reduced to:  24 ShMem   1 Linda.
 CalDSu:  requested number of processors reduced to:  32 ShMem   1 Linda.
 NEqPCM:  Using equilibrium solvation (IEInf=0, Eps=  78.3553, EpsInf=   1.7778)
 G2PCM: DoFxE=T DoFxN=T DoGrad=T DoDP/DQ/DG/TGxP=FFFF NFrqRd=   0 IEInf=0 SqF1=F DoCFld=F IF1Alg=4.
 CoulSu:  requested number of processors reduced to:  30 ShMem   1 Linda.
 CoulSu:  requested number of processors reduced to:  29 ShMem   1 Linda.
 CoulSu:  requested number of processors reduced to:  30 ShMem   1 Linda.
 CoulSu:  requested number of processors reduced to:  30 ShMem   1 Linda.
 CoulSu:  requested number of processors reduced to:  29 ShMem   1 Linda.
 CoulSu:  requested number of processors reduced to:  30 ShMem   1 Linda.
 CoulSu:  requested number of processors reduced to:  29 ShMem   1 Linda.
 CoulSu:  requested number of processors reduced to:  29 ShMem   1 Linda.
 CoulSu:  requested number of processors reduced to:  29 ShMem   1 Linda.
 CoulSu:  requested number of processors reduced to:  29 ShMem   1 Linda.
 CoulSu:  requested number of processors reduced to:  29 ShMem   1 Linda.
 CoulSu:  requested number of processors reduced to:  29 ShMem   1 Linda.
 CoulSu:  requested number of processors reduced to:  29 ShMem   1 Linda.
 CoulSu:  requested number of processors reduced to:  29 ShMem   1 Linda.
 CoulSu:  requested number of processors reduced to:  29 ShMem   1 Linda.
 CoulSu:  requested number of processors reduced to:  29 ShMem   1 Linda.
 CoulSu:  requested number of processors reduced to:  29 ShMem   1 Linda.
 CoulSu:  requested number of processors reduced to:  29 ShMem   1 Linda.
 CoulSu:  requested number of processors reduced to:  29 ShMem   1 Linda.
 CoulSu:  requested number of processors reduced to:  29 ShMem   1 Linda.
 CoulSu:  requested number of processors reduced to:  29 ShMem   1 Linda.
 CoulSu:  requested number of processors reduced to:  29 ShMem   1 Linda.
 CoulSu:  requested number of processors reduced to:  29 ShMem   1 Linda.
 CoulSu:  requested number of processors reduced to:  29 ShMem   1 Linda.
 CoulSu:  requested number of processors reduced to:  29 ShMem   1 Linda.
 CoulSu:  requested number of processors reduced to:  29 ShMem   1 Linda.
 CoulSu:  requested number of processors reduced to:  29 ShMem   1 Linda.
 CoulSu:  requested number of processors reduced to:  29 ShMem   1 Linda.
 CoulSu:  requested number of processors reduced to:  29 ShMem   1 Linda.
 CoulSu:  requested number of processors reduced to:  29 ShMem   1 Linda.
 CoulSu:  requested number of processors reduced to:  29 ShMem   1 Linda.
 CoulSu:  requested number of processors reduced to:  29 ShMem   1 Linda.
 CoulSu:  requested number of processors reduced to:  29 ShMem   1 Linda.
 CoulSu:  requested number of processors reduced to:  29 ShMem   1 Linda.
 CoulSu:  requested number of processors reduced to:  29 ShMem   1 Linda.
 CoulSu:  requested number of processors reduced to:  29 ShMem   1 Linda.
 CoulSu:  requested number of processors reduced to:  29 ShMem   1 Linda.
 CoulSu:  requested number of processors reduced to:  29 ShMem   1 Linda.
 CoulSu:  requested number of processors reduced to:  29 ShMem   1 Linda.
 CoulSu:  requested number of processors reduced to:  29 ShMem   1 Linda.
 CoulSu:  requested number of processors reduced to:  29 ShMem   1 Linda.
 CoulSu:  requested number of processors reduced to:  29 ShMem   1 Linda.
 CoulSu:  requested number of processors reduced to:  29 ShMem   1 Linda.
 CoulSu:  requested number of processors reduced to:  29 ShMem   1 Linda.
 CoulSu:  requested number of processors reduced to:  29 ShMem   1 Linda.
 CoulSu:  requested number of processors reduced to:  29 ShMem   1 Linda.
 CoulSu:  requested number of processors reduced to:  29 ShMem   1 Linda.
 CoulSu:  requested number of processors reduced to:  29 ShMem   1 Linda.
 CoulSu:  requested number of processors reduced to:  29 ShMem   1 Linda.
 CoulSu:  requested number of processors reduced to:  29 ShMem   1 Linda.
 CoulSu:  requested number of processors reduced to:  29 ShMem   1 Linda.
 CoulSu:  requested number of processors reduced to:  29 ShMem   1 Linda.
 CoulSu:  requested number of processors reduced to:  29 ShMem   1 Linda.
 CoulSu:  requested number of processors reduced to:  29 ShMem   1 Linda.
 CoulSu:  requested number of processors reduced to:  29 ShMem   1 Linda.
 CoulSu:  requested number of processors reduced to:  29 ShMem   1 Linda.
 CoulSu:  requested number of processors reduced to:  29 ShMem   1 Linda.
 CoulSu:  requested number of processors reduced to:  29 ShMem   1 Linda.
 CoulSu:  requested number of processors reduced to:  29 ShMem   1 Linda.
 CoulSu:  requested number of processors reduced to:  29 ShMem   1 Linda.
 CoulSu:  requested number of processors reduced to:  29 ShMem   1 Linda.
 CoulSu:  requested number of processors reduced to:  29 ShMem   1 Linda.
 CoulSu:  requested number of processors reduced to:  29 ShMem   1 Linda.
 CoulSu:  requested number of processors reduced to:  29 ShMem   1 Linda.
 CoulSu:  requested number of processors reduced to:  29 ShMem   1 Linda.
 CoulSu:  requested number of processors reduced to:  29 ShMem   1 Linda.
 CoulSu:  requested number of processors reduced to:  29 ShMem   1 Linda.
 CoulSu:  requested number of processors reduced to:  29 ShMem   1 Linda.
 CoulSu:  requested number of processors reduced to:  29 ShMem   1 Linda.
 CoulSu:  requested number of processors reduced to:  29 ShMem   1 Linda.
 CoulSu:  requested number of processors reduced to:  29 ShMem   1 Linda.
 CoulSu:  requested number of processors reduced to:  29 ShMem   1 Linda.
 CoulSu:  requested number of processors reduced to:  29 ShMem   1 Linda.
 CoulSu:  requested number of processors reduced to:  29 ShMem   1 Linda.
 CoulSu:  requested number of processors reduced to:  29 ShMem   1 Linda.
 CoulSu:  requested number of processors reduced to:  29 ShMem   1 Linda.
 CoulSu:  requested number of processors reduced to:  29 ShMem   1 Linda.
 CoulSu:  requested number of processors reduced to:  29 ShMem   1 Linda.
 CoulSu:  requested number of processors reduced to:  29 ShMem   1 Linda.
 CoulSu:  requested number of processors reduced to:  29 ShMem   1 Linda.
 CoulSu:  requested number of processors reduced to:  29 ShMem   1 Linda.
 CoulSu:  requested number of processors reduced to:  29 ShMem   1 Linda.
 CoulSu:  requested number of processors reduced to:  29 ShMem   1 Linda.
 CoulSu:  requested number of processors reduced to:  29 ShMem   1 Linda.
 CoulSu:  requested number of processors reduced to:  29 ShMem   1 Linda.
 CoulSu:  requested number of processors reduced to:  29 ShMem   1 Linda.
 CoulSu:  requested number of processors reduced to:  25 ShMem   1 Linda.
 CoulSu:  requested number of processors reduced to:  26 ShMem   1 Linda.
 CoulSu:  requested number of processors reduced to:  34 ShMem   1 Linda.
 CoulSu:  requested number of processors reduced to:  35 ShMem   1 Linda.
 CoulSu:  requested number of processors reduced to:  25 ShMem   1 Linda.
 CoulSu:  requested number of processors reduced to:  26 ShMem   1 Linda.
 End of G2Drv F.D. properties file   721 does not exist.
 End of G2Drv F.D. properties file   722 does not exist.
 End of G2Drv F.D. properties file   788 does not exist.
          IDoAtm=1111111111111111111111111111111111111111
 NEqPCM:  Using equilibrium solvation (IEInf=0, Eps=  78.3553, EpsInf=   1.7778)
          Differentiating once with respect to electric field.
                with respect to dipole field.
          Differentiating once with respect to nuclear coordinates.
 CalDSu exits because no D1Ps are significant.
 CalDSu exits because no D1Ps are significant.
          There are   123 degrees of freedom in the 1st order CPHF.  IDoFFX=6 NUNeed=     3.
    121 vectors produced by pass  0 Test12= 6.87D-14 1.00D-09 XBig12= 4.71D+02 1.63D+01.
 AX will form     2 AO Fock derivatives at one time.
    120 vectors produced by pass  1 Test12= 6.87D-14 1.00D-09 XBig12= 3.28D+01 8.37D-01.
    120 vectors produced by pass  2 Test12= 6.87D-14 1.00D-09 XBig12= 9.66D-01 8.63D-02.
    120 vectors produced by pass  3 Test12= 6.87D-14 1.00D-09 XBig12= 1.45D-02 1.11D-02.
    120 vectors produced by pass  4 Test12= 6.87D-14 1.00D-09 XBig12= 1.59D-04 1.26D-03.
    120 vectors produced by pass  5 Test12= 6.87D-14 1.00D-09 XBig12= 1.29D-06 1.04D-04.
    119 vectors produced by pass  6 Test12= 6.87D-14 1.00D-09 XBig12= 8.34D-09 1.08D-05.
     75 vectors produced by pass  7 Test12= 6.87D-14 1.00D-09 XBig12= 4.25D-11 6.14D-07.
      6 vectors produced by pass  8 Test12= 6.87D-14 1.00D-09 XBig12= 2.26D-13 3.56D-08.
      3 vectors produced by pass  9 Test12= 6.87D-14 1.00D-09 XBig12= 1.23D-15 3.27D-09.
 InvSVY:  IOpt=1 It=  1 EMax= 7.11D-15
 Solved reduced A of dimension   924 with   123 vectors.
 Isotropic polarizability for W=    0.000000      494.65 Bohr**3.
 End of Minotr F.D. properties file   721 does not exist.
 End of Minotr F.D. properties file   722 does not exist.
 End of Minotr F.D. properties file   788 does not exist.

 **********************************************************************

            Population analysis using the SCF Density.

 **********************************************************************

 Orbital symmetries:
       Occupied  (A) (A) (A) (A) (A) (A) (A) (A) (A) (A) (A) (A)
                 (A) (A) (A) (A) (A) (A) (A) (A) (A) (A) (A) (A)
                 (A) (A) (A) (A) (A) (A) (A) (A) (A) (A) (A) (A)
                 (A) (A) (A) (A) (A) (A) (A) (A) (A) (A) (A) (A)
                 (A) (A) (A) (A) (A) (A) (A) (A) (A) (A) (A) (A)
                 (A) (A) (A) (A) (A) (A) (A) (A) (A) (A) (A) (A)
                 (A) (A) (A) (A) (A) (A) (A) (A) (A) (A) (A) (A)
                 (A) (A) (A) (A) (A) (A) (A) (A) (A) (A) (A) (A)
                 (A) (A) (A) (A) (A) (A) (A) (A) (A) (A) (A) (A)
                 (A) (A) (A) (A) (A)
       Virtual   (A) (A) (A) (A) (A) (A) (A) (A) (A) (A) (A) (A)
                 (A) (A) (A) (A) (A) (A) (A) (A) (A) (A) (A) (A)
                 (A) (A) (A) (A) (A) (A) (A) (A) (A) (A) (A) (A)
                 (A) (A) (A) (A) (A) (A) (A) (A) (A) (A) (A) (A)
                 (A) (A) (A) (A) (A) (A) (A) (A) (A) (A) (A) (A)
                 (A) (A) (A) (A) (A) (A) (A) (A) (A) (A) (A) (A)
                 (A) (A) (A) (A) (A) (A) (A) (A) (A) (A) (A) (A)
                 (A) (A) (A) (A) (A) (A) (A) (A) (A) (A) (A) (A)
                 (A) (A) (A) (A) (A) (A) (A) (A) (A) (A) (A) (A)
                 (A) (A) (A) (A) (A) (A) (A) (A) (A) (A) (A) (A)
                 (A) (A) (A) (A) (A) (A) (A) (A) (A) (A) (A) (A)
                 (A) (A) (A) (A) (A) (A) (A) (A) (A) (A) (A) (A)
                 (A) (A) (A) (A) (A) (A) (A) (A) (A) (A) (A) (A)
                 (A) (A) (A) (A) (A) (A) (A) (A) (A) (A) (A) (A)
                 (A) (A) (A) (A) (A) (A) (A) (A) (A) (A) (A) (A)
                 (A) (A) (A) (A) (A) (A) (A) (A) (A) (A) (A) (A)
                 (A) (A) (A) (A) (A) (A) (A) (A) (A) (A) (A) (A)
                 (A) (A) (A) (A) (A) (A) (A) (A) (A) (A) (A) (A)
                 (A) (A) (A) (A) (A) (A) (A) (A) (A) (A) (A) (A)
                 (A) (A) (A) (A) (A) (A) (A) (A) (A) (A) (A) (A)
                 (A) (A) (A) (A) (A) (A) (A) (A) (A) (A) (A) (A)
                 (A) (A) (A) (A) (A) (A) (A) (A) (A) (A) (A) (A)
                 (A) (A) (A) (A) (A) (A) (A) (A) (A) (A) (A) (A)
                 (A) (A) (A) (A) (A) (A) (A) (A) (A) (A) (A) (A)
                 (A) (A) (A) (A) (A) (A) (A) (A) (A) (A) (A) (A)
                 (A) (A) (A) (A) (A) (A) (A) (A) (A) (A) (A) (A)
                 (A) (A) (A) (A) (A) (A) (A) (A) (A) (A) (A) (A)
                 (A) (A) (A) (A) (A) (A) (A) (A) (A) (A) (A) (A)
                 (A) (A) (A) (A) (A) (A) (A) (A) (A) (A) (A) (A)
                 (A) (A) (A) (A) (A) (A) (A) (A) (A) (A) (A) (A)
                 (A) (A) (A) (A) (A) (A) (A) (A) (A) (A) (A) (A)
                 (A) (A) (A) (A) (A) (A) (A) (A) (A) (A) (A) (A)
                 (A) (A) (A) (A) (A) (A) (A) (A) (A) (A) (A) (A)
                 (A) (A) (A) (A) (A) (A) (A) (A) (A) (A) (A) (A)
                 (A) (A) (A) (A) (A) (A) (A) (A) (A) (A) (A) (A)
                 (A) (A) (A) (A) (A) (A) (A) (A) (A) (A) (A) (A)
                 (A) (A) (A) (A) (A) (A) (A) (A) (A) (A) (A) (A)
                 (A) (A) (A) (A) (A) (A) (A) (A) (A) (A) (A) (A)
                 (A) (A) (A) (A) (A) (A) (A) (A) (A) (A) (A) (A)
                 (A) (A) (A) (A) (A) (A) (A) (A) (A) (A) (A) (A)
                 (A) (A) (A) (A) (A) (A) (A) (A) (A) (A) (A) (A)
                 (A) (A) (A) (A) (A) (A) (A) (A) (A) (A) (A) (A)
                 (A) (A) (A) (A) (A) (A) (A) (A) (A) (A) (A) (A)
                 (A) (A) (A) (A) (A) (A) (A) (A) (A) (A) (A) (A)
                 (A) (A) (A) (A) (A) (A) (A) (A) (A) (A) (A) (A)
                 (A) (A) (A) (A) (A) (A) (A) (A) (A) (A) (A) (A)
                 (A) (A) (A) (A) (A) (A) (A) (A) (A) (A) (A) (A)
                 (A) (A) (A) (A) (A) (A) (A) (A) (A) (A) (A) (A)
                 (A) (A) (A) (A) (A) (A) (A) (A) (A) (A) (A) (A)
                 (A) (A) (A) (A) (A) (A) (A) (A) (A) (A) (A) (A)
                 (A) (A) (A) (A) (A) (A) (A) (A)
 The electronic state is 1-A.
 Alpha  occ. eigenvalues --  -89.12181 -89.12144 -19.23943 -19.22773 -19.16200
 Alpha  occ. eigenvalues --  -19.16109 -19.16101 -19.15922 -19.15921 -19.15870
 Alpha  occ. eigenvalues --  -14.45642 -14.44844 -14.40120 -10.34523 -10.33199
 Alpha  occ. eigenvalues --  -10.30719 -10.29775 -10.28500 -10.28235 -10.28166
 Alpha  occ. eigenvalues --  -10.28098 -10.27931 -10.26288 -10.26069 -10.25857
 Alpha  occ. eigenvalues --  -10.25694 -10.25558 -10.25352 -10.25150  -8.18294
 Alpha  occ. eigenvalues --   -8.18275  -6.14652  -6.14642  -6.14629  -6.14618
 Alpha  occ. eigenvalues --   -6.14570  -6.14563  -1.19969  -1.19789  -1.18245
 Alpha  occ. eigenvalues --   -1.15398  -1.13325  -1.05637  -1.05376  -1.05338
 Alpha  occ. eigenvalues --   -1.05254  -1.02017  -0.98522  -0.95780  -0.93301
 Alpha  occ. eigenvalues --   -0.88812  -0.87043  -0.84786  -0.84279  -0.81886
 Alpha  occ. eigenvalues --   -0.77883  -0.74900  -0.73551  -0.71139  -0.70009
 Alpha  occ. eigenvalues --   -0.68635  -0.68207  -0.66108  -0.63935  -0.62502
 Alpha  occ. eigenvalues --   -0.60766  -0.60522  -0.59189  -0.58516  -0.57857
 Alpha  occ. eigenvalues --   -0.56326  -0.55516  -0.54568  -0.53687  -0.52955
 Alpha  occ. eigenvalues --   -0.52546  -0.52236  -0.51975  -0.51787  -0.51154
 Alpha  occ. eigenvalues --   -0.51142  -0.50630  -0.50158  -0.49485  -0.48482
 Alpha  occ. eigenvalues --   -0.48099  -0.46927  -0.46430  -0.45965  -0.44985
 Alpha  occ. eigenvalues --   -0.44812  -0.42702  -0.41946  -0.41724  -0.40482
 Alpha  occ. eigenvalues --   -0.40383  -0.40236  -0.40037  -0.39080  -0.37274
 Alpha  occ. eigenvalues --   -0.36518  -0.36215  -0.35889  -0.35459  -0.35112
 Alpha  occ. eigenvalues --   -0.33068  -0.32763  -0.31922  -0.31699  -0.31573
 Alpha  occ. eigenvalues --   -0.31251  -0.27987  -0.25103
 Alpha virt. eigenvalues --   -0.05955  -0.00682   0.01325   0.01770   0.02309
 Alpha virt. eigenvalues --    0.02363   0.02996   0.03526   0.03864   0.04772
 Alpha virt. eigenvalues --    0.05305   0.05359   0.05767   0.06280   0.06563
 Alpha virt. eigenvalues --    0.06765   0.07122   0.07413   0.07510   0.08547
 Alpha virt. eigenvalues --    0.08752   0.08824   0.09313   0.09579   0.09944
 Alpha virt. eigenvalues --    0.10742   0.10941   0.11166   0.11568   0.11734
 Alpha virt. eigenvalues --    0.11993   0.12397   0.12593   0.13050   0.13711
 Alpha virt. eigenvalues --    0.13977   0.14170   0.14293   0.14371   0.14433
 Alpha virt. eigenvalues --    0.14761   0.14974   0.15166   0.15396   0.15771
 Alpha virt. eigenvalues --    0.16235   0.16646   0.16832   0.17029   0.17087
 Alpha virt. eigenvalues --    0.17246   0.17698   0.17809   0.18108   0.18221
 Alpha virt. eigenvalues --    0.18471   0.18717   0.19053   0.19656   0.19842
 Alpha virt. eigenvalues --    0.20158   0.20292   0.20571   0.20754   0.20935
 Alpha virt. eigenvalues --    0.21143   0.21310   0.21765   0.21999   0.22332
 Alpha virt. eigenvalues --    0.22909   0.23188   0.23311   0.23519   0.23921
 Alpha virt. eigenvalues --    0.24394   0.24587   0.24781   0.25181   0.25289
 Alpha virt. eigenvalues --    0.25367   0.25760   0.26072   0.26669   0.26869
 Alpha virt. eigenvalues --    0.27137   0.27532   0.27988   0.28093   0.28397
 Alpha virt. eigenvalues --    0.28542   0.28753   0.28880   0.28926   0.29345
 Alpha virt. eigenvalues --    0.30249   0.30560   0.30618   0.30812   0.30966
 Alpha virt. eigenvalues --    0.31124   0.31190   0.31790   0.32056   0.32472
 Alpha virt. eigenvalues --    0.32585   0.32669   0.33062   0.33134   0.33245
 Alpha virt. eigenvalues --    0.33413   0.33553   0.33803   0.34306   0.34492
 Alpha virt. eigenvalues --    0.34713   0.34911   0.35072   0.35333   0.35516
 Alpha virt. eigenvalues --    0.35688   0.36161   0.36599   0.37110   0.37279
 Alpha virt. eigenvalues --    0.37421   0.37664   0.37783   0.38557   0.38677
 Alpha virt. eigenvalues --    0.38790   0.38948   0.39438   0.39978   0.40079
 Alpha virt. eigenvalues --    0.40628   0.41193   0.41431   0.42195   0.42600
 Alpha virt. eigenvalues --    0.42808   0.42936   0.43977   0.44285   0.44353
 Alpha virt. eigenvalues --    0.44553   0.45013   0.45555   0.45868   0.46066
 Alpha virt. eigenvalues --    0.46536   0.46976   0.47552   0.48328   0.49429
 Alpha virt. eigenvalues --    0.49494   0.49973   0.51489   0.52005   0.52498
 Alpha virt. eigenvalues --    0.52817   0.54333   0.54524   0.55870   0.57135
 Alpha virt. eigenvalues --    0.57547   0.58121   0.58578   0.59195   0.59621
 Alpha virt. eigenvalues --    0.59786   0.60397   0.60620   0.60919   0.61643
 Alpha virt. eigenvalues --    0.62183   0.62728   0.63417   0.64352   0.64737
 Alpha virt. eigenvalues --    0.65331   0.65516   0.66027   0.66708   0.67449
 Alpha virt. eigenvalues --    0.67579   0.68105   0.68308   0.68827   0.69628
 Alpha virt. eigenvalues --    0.69789   0.70050   0.70581   0.71196   0.71548
 Alpha virt. eigenvalues --    0.71891   0.72876   0.73177   0.73359   0.73711
 Alpha virt. eigenvalues --    0.75001   0.75530   0.76887   0.77303   0.77834
 Alpha virt. eigenvalues --    0.79231   0.79499   0.79841   0.80443   0.81178
 Alpha virt. eigenvalues --    0.82297   0.82489   0.83375   0.83440   0.84565
 Alpha virt. eigenvalues --    0.85082   0.86558   0.87180   0.87627   0.89086
 Alpha virt. eigenvalues --    0.89880   0.90149   0.90913   0.91618   0.92409
 Alpha virt. eigenvalues --    0.93062   0.93761   0.94090   0.94427   0.95446
 Alpha virt. eigenvalues --    0.95868   0.96127   0.96785   0.97555   0.98096
 Alpha virt. eigenvalues --    0.98225   0.98372   0.99249   0.99512   1.00483
 Alpha virt. eigenvalues --    1.01040   1.01506   1.02251   1.02590   1.03221
 Alpha virt. eigenvalues --    1.03891   1.04804   1.05592   1.05787   1.06135
 Alpha virt. eigenvalues --    1.07056   1.07418   1.08120   1.08335   1.09050
 Alpha virt. eigenvalues --    1.09238   1.09903   1.10316   1.11059   1.12238
 Alpha virt. eigenvalues --    1.12617   1.13478   1.14118   1.14258   1.14794
 Alpha virt. eigenvalues --    1.15158   1.15279   1.16184   1.16390   1.18642
 Alpha virt. eigenvalues --    1.19543   1.19818   1.20385   1.20926   1.21143
 Alpha virt. eigenvalues --    1.22574   1.23227   1.23436   1.23740   1.24392
 Alpha virt. eigenvalues --    1.24572   1.25657   1.25697   1.26107   1.26513
 Alpha virt. eigenvalues --    1.26959   1.28112   1.28223   1.28537   1.28595
 Alpha virt. eigenvalues --    1.29425   1.30251   1.31104   1.31345   1.32669
 Alpha virt. eigenvalues --    1.33584   1.33771   1.34037   1.34543   1.34744
 Alpha virt. eigenvalues --    1.35280   1.36967   1.37830   1.38453   1.41707
 Alpha virt. eigenvalues --    1.41934   1.43375   1.44463   1.45483   1.45548
 Alpha virt. eigenvalues --    1.48289   1.51230   1.52996   1.54143   1.55403
 Alpha virt. eigenvalues --    1.56321   1.56377   1.57175   1.57942   1.59504
 Alpha virt. eigenvalues --    1.60297   1.61019   1.62357   1.62592   1.62965
 Alpha virt. eigenvalues --    1.63058   1.64176   1.65071   1.65272   1.65294
 Alpha virt. eigenvalues --    1.66303   1.67863   1.68158   1.68689   1.69352
 Alpha virt. eigenvalues --    1.69492   1.70498   1.71535   1.71810   1.72956
 Alpha virt. eigenvalues --    1.73231   1.75588   1.75998   1.77100   1.77807
 Alpha virt. eigenvalues --    1.78576   1.79568   1.81534   1.82794   1.83527
 Alpha virt. eigenvalues --    1.84437   1.85160   1.86283   1.88393   1.89561
 Alpha virt. eigenvalues --    1.90169   1.91162   1.92069   1.92243   1.93284
 Alpha virt. eigenvalues --    1.93780   1.95197   1.95996   1.96686   1.97445
 Alpha virt. eigenvalues --    1.98608   1.99197   1.99833   1.99913   2.00018
 Alpha virt. eigenvalues --    2.00658   2.01308   2.01514   2.03944   2.04306
 Alpha virt. eigenvalues --    2.05029   2.06350   2.07180   2.07968   2.08585
 Alpha virt. eigenvalues --    2.09220   2.09488   2.12674   2.13257   2.13617
 Alpha virt. eigenvalues --    2.14625   2.15295   2.15335   2.16141   2.17411
 Alpha virt. eigenvalues --    2.19361   2.20255   2.20551   2.23276   2.24012
 Alpha virt. eigenvalues --    2.28760   2.29492   2.32228   2.32364   2.34114
 Alpha virt. eigenvalues --    2.34606   2.37854   2.39131   2.41140   2.42527
 Alpha virt. eigenvalues --    2.43777   2.43840   2.44441   2.49198   2.51701
 Alpha virt. eigenvalues --    2.52741   2.52822   2.54817   2.56046   2.60172
 Alpha virt. eigenvalues --    2.61879   2.63029   2.64142   2.65574   2.67704
 Alpha virt. eigenvalues --    2.69686   2.70076   2.71835   2.72209   2.73879
 Alpha virt. eigenvalues --    2.75179   2.75697   2.77231   2.77392   2.77966
 Alpha virt. eigenvalues --    2.79366   2.79817   2.81000   2.81233   2.81715
 Alpha virt. eigenvalues --    2.83904   2.84768   2.85838   2.85919   2.86268
 Alpha virt. eigenvalues --    2.86393   2.86515   2.87637   2.88699   2.89026
 Alpha virt. eigenvalues --    2.90955   2.91520   2.91550   2.91771   2.91835
 Alpha virt. eigenvalues --    2.91929   2.92316   2.94056   2.94289   2.94705
 Alpha virt. eigenvalues --    2.94872   2.95439   2.95913   2.96592   2.96631
 Alpha virt. eigenvalues --    2.97016   2.97697   2.98255   2.98719   2.98880
 Alpha virt. eigenvalues --    3.00224   3.00988   3.01392   3.04749   3.05441
 Alpha virt. eigenvalues --    3.07018   3.08065   3.08498   3.10299   3.11231
 Alpha virt. eigenvalues --    3.12819   3.13223   3.13955   3.14753   3.15858
 Alpha virt. eigenvalues --    3.17228   3.17563   3.17716   3.19722   3.23033
 Alpha virt. eigenvalues --    3.23989   3.24111   3.25474   3.26118   3.26505
 Alpha virt. eigenvalues --    3.27007   3.27478   3.29226   3.30002   3.31438
 Alpha virt. eigenvalues --    3.33958   3.37149   3.39716   3.42046   3.43652
 Alpha virt. eigenvalues --    3.44688   3.46374   3.47777   3.49485   3.51184
 Alpha virt. eigenvalues --    3.52612   3.55397   3.58138   3.59511   3.59670
 Alpha virt. eigenvalues --    3.63193   3.65286   3.66264   3.67541   3.68119
 Alpha virt. eigenvalues --    3.69851   3.71243   3.71465   3.72824   3.78077
 Alpha virt. eigenvalues --    3.87825   3.88394   3.88547   3.89771   3.94014
 Alpha virt. eigenvalues --    3.95861   4.01027   4.02757   4.07158   4.08151
 Alpha virt. eigenvalues --    4.08924   4.12502   4.19414   4.23445   4.26183
 Alpha virt. eigenvalues --    4.28504   4.31979   4.35455   4.43323   4.62426
 Alpha virt. eigenvalues --    4.84607   4.92643   4.92786   4.93181   4.94440
 Alpha virt. eigenvalues --    5.07209   5.09004   5.09660   5.10149   5.10513
 Alpha virt. eigenvalues --    5.12842   5.14258   5.14555   5.14867   5.16419
 Alpha virt. eigenvalues --    5.17219   5.18488   5.19758   5.20858   5.21892
 Alpha virt. eigenvalues --    5.22780   5.27159   5.35921   5.36636   5.40194
 Alpha virt. eigenvalues --    5.42555   5.53962   5.58368   5.64976   5.89193
 Alpha virt. eigenvalues --    5.92992   8.28968   8.32239  17.47694  17.48849
 Alpha virt. eigenvalues --   17.49381  17.52034  17.58212  17.61375  23.55920
 Alpha virt. eigenvalues --   23.71082  23.82948  23.93135  23.96734  24.01747
 Alpha virt. eigenvalues --   24.02274  24.03260  24.06990  24.10465  24.11234
 Alpha virt. eigenvalues --   24.17393  24.19736  24.24632  24.25320  24.26651
 Alpha virt. eigenvalues --   35.58761  35.71147  35.76953  49.93968  49.95294
 Alpha virt. eigenvalues --   49.96816  49.98285  50.03142  50.03384  50.04341
 Alpha virt. eigenvalues --   50.05600 189.30958 189.34710
          Condensed to atoms (all electrons):
               1          2          3          4          5          6
     1  C   11.281280  -0.292046   0.830602  -0.925866   1.436953  -4.075387
     2  C   -0.292046   9.468204   2.787595   0.379397   1.474565   0.739445
     3  C    0.830602   2.787595  17.193692   5.481532   2.514654  -2.333079
     4  C   -0.925866   0.379397   5.481532  18.582602  -0.616958  -2.312657
     5  C    1.436953   1.474565   2.514654  -0.616958  11.513323  -3.594095
     6  C   -4.075387   0.739445  -2.333079  -2.312657  -3.594095  18.554940
     7  C    0.236457  -4.018441  -3.874041  -1.060494  -1.963886  -1.026998
     8  C   -2.739055  -1.288939  -2.882776  -2.411315  -4.557808   5.177890
     9  H   -0.016046   0.089534   0.096042   0.150950   0.660889  -0.121830
    10  C   -1.249925  -0.890764  -4.179981  -6.898822   0.911817   0.784685
    11  C    1.113098  -1.812091  -9.331184  -2.801183  -1.927146  -0.926660
    12  H   -0.006492  -0.036479  -0.094438   0.014927  -0.334159   0.154505
    13  H    0.007548  -0.017926  -0.250999   0.102388  -0.101602   0.010146
    14  N    0.911694  -0.582380  -0.145787  -0.547870  -0.157215  -0.743039
    15  N   -1.351069   0.489596  -0.088997   0.447938   0.064494   0.918301
    16  C   -0.510756  -0.260669  -0.336350  -0.228315  -0.203446   0.055609
    17  C   -0.044111   0.059469   0.075688   0.107615  -0.036235  -0.077545
    18  C    0.213888   0.070332   0.073325  -0.013831   0.163854   0.083403
    19  C   -0.250294   0.022953  -0.038055  -0.001416  -0.012699   0.047695
    20  H    0.006914   0.014383  -0.003129   0.000263   0.000196  -0.001584
    21  C    0.476007   0.018308   0.050017   0.001971   0.053391  -0.131589
    22  H   -0.033068   0.037616  -0.002260   0.010682  -0.003262   0.068273
    23  C    0.091838   0.011254   0.016193   0.007332   0.002043   0.029196
    24  H   -0.005344  -0.000397  -0.001088  -0.000434  -0.000172   0.000481
    25  H    0.000330  -0.002566   0.000091  -0.000470   0.000147  -0.005881
    26  N   -0.001039   0.000014  -0.000067  -0.000016  -0.000001  -0.000029
    27  H   -0.000397   0.000001  -0.000055  -0.000008  -0.000014   0.000144
    28  H    0.000927   0.000126   0.000065   0.000021   0.000033  -0.000148
    29  O   -0.102423   0.226676  -0.107617  -0.100804   0.026464   0.050892
    30  O    0.020746   0.003523   0.213692   0.006036   0.023936   0.002938
    31  H    0.007664  -0.019497  -0.220884  -0.001749  -0.033720   0.017354
    32  S   -0.013614  -0.013851  -0.100895  -1.113790   0.529957  -0.195128
    33  O    0.000840   0.003844   0.011449   0.074614   0.001343  -0.005477
    34  O   -0.000607  -0.009884  -0.019996  -0.065754  -0.012786  -0.017372
    35  O    0.000985   0.002080   0.013340   0.097220   0.000458  -0.004302
    36  S    1.207845  -0.585731  -0.209498  -0.978559   0.090269  -4.182713
    37  O   -0.049084  -0.027039  -0.013770  -0.005313  -0.070002  -0.087759
    38  O    0.249095   0.005945   0.133407  -0.019863   0.409717  -0.072350
    39  O   -0.051705  -0.026337  -0.012672  -0.003034  -0.067052  -0.085414
    40  H   -0.197959   0.074935   0.199678   0.018481   0.065967  -0.009763
               7          8          9         10         11         12
     1  C    0.236457  -2.739055  -0.016046  -1.249925   1.113098  -0.006492
     2  C   -4.018441  -1.288939   0.089534  -0.890764  -1.812091  -0.036479
     3  C   -3.874041  -2.882776   0.096042  -4.179981  -9.331184  -0.094438
     4  C   -1.060494  -2.411315   0.150950  -6.898822  -2.801183   0.014927
     5  C   -1.963886  -4.557808   0.660889   0.911817  -1.927146  -0.334159
     6  C   -1.026998   5.177890  -0.121830   0.784685  -0.926660   0.154505
     7  C   21.161979   0.008610  -0.047752  -4.179679   2.282784   0.068885
     8  C    0.008610  17.186501  -0.406631  -1.929003  -0.803248   0.681212
     9  H   -0.047752  -0.406631   0.554418   0.083214  -0.040236  -0.045673
    10  C   -4.179679  -1.929003   0.083214  27.436887  -1.229303  -0.067155
    11  C    2.282784  -0.803248  -0.040236  -1.229303  21.210647   0.060540
    12  H    0.068885   0.681212  -0.045673  -0.067155   0.060540   0.545019
    13  H   -0.269992   0.063519  -0.002939   0.086388   0.763979   0.011909
    14  N    0.031206  -0.002791  -0.015905  -0.040642   0.007024   0.000291
    15  N   -0.197743   0.114392   0.016568   0.079979  -0.072294  -0.000727
    16  C   -0.012122  -0.106414  -0.004174  -0.027670   0.004212   0.000108
    17  C    0.031222   0.040037  -0.002833   0.003552   0.003566   0.000328
    18  C    0.001882  -0.001334   0.005046   0.001973   0.006465  -0.000330
    19  C    0.007217  -0.001283  -0.000081   0.000221   0.002005   0.000005
    20  H    0.008317   0.000158  -0.000061  -0.000558   0.003282   0.000010
    21  C   -0.004231   0.004151  -0.000413  -0.000691   0.000174   0.000043
    22  H   -0.003647   0.005660   0.000376   0.002778  -0.001107  -0.000055
    23  C    0.002216   0.000281   0.000351   0.000258   0.000152  -0.000018
    24  H   -0.000260  -0.000066  -0.000005  -0.000022  -0.000019   0.000000
    25  H   -0.000046  -0.000048  -0.000042  -0.000034   0.000007   0.000002
    26  N    0.000000  -0.000001  -0.000001  -0.000000   0.000000   0.000000
    27  H    0.000010  -0.000003   0.000001   0.000000   0.000001  -0.000000
    28  H   -0.000002   0.000006  -0.000001   0.000000  -0.000000   0.000000
    29  O   -0.221609  -0.025718   0.000309   0.020076   0.032212  -0.000123
    30  O    0.220561  -0.010332   0.000166  -0.010427  -0.539410   0.000406
    31  H    0.162900   0.024575  -0.000746  -0.051644   0.176075   0.001233
    32  S   -0.019500  -0.212860   0.043200  -1.800711   0.862149  -0.186341
    33  O   -0.175926   0.073416   0.001138   0.383171  -0.347841  -0.004626
    34  O    0.119833   0.207713   0.004428  -0.560535   0.400327  -0.027785
    35  O   -0.183966   0.084107   0.000843   0.379736  -0.389824   0.000118
    36  S   -0.232727   0.024147  -0.206595  -0.379159  -0.085141   0.035879
    37  O   -0.003781  -0.029889  -0.001649  -0.009304  -0.000611   0.000763
    38  O    0.006890   0.035682  -0.059779  -0.025045   0.007971   0.007184
    39  O   -0.003997  -0.031767  -0.001040  -0.009157  -0.000663   0.000646
    40  H   -0.213900   0.001659   0.003125   0.039954  -0.156658  -0.000763
              13         14         15         16         17         18
     1  C    0.007548   0.911694  -1.351069  -0.510756  -0.044111   0.213888
     2  C   -0.017926  -0.582380   0.489596  -0.260669   0.059469   0.070332
     3  C   -0.250999  -0.145787  -0.088997  -0.336350   0.075688   0.073325
     4  C    0.102388  -0.547870   0.447938  -0.228315   0.107615  -0.013831
     5  C   -0.101602  -0.157215   0.064494  -0.203446  -0.036235   0.163854
     6  C    0.010146  -0.743039   0.918301   0.055609  -0.077545   0.083403
     7  C   -0.269992   0.031206  -0.197743  -0.012122   0.031222   0.001882
     8  C    0.063519  -0.002791   0.114392  -0.106414   0.040037  -0.001334
     9  H   -0.002939  -0.015905   0.016568  -0.004174  -0.002833   0.005046
    10  C    0.086388  -0.040642   0.079979  -0.027670   0.003552   0.001973
    11  C    0.763979   0.007024  -0.072294   0.004212   0.003566   0.006465
    12  H    0.011909   0.000291  -0.000727   0.000108   0.000328  -0.000330
    13  H    0.511131   0.000660  -0.001073  -0.000331   0.000017   0.000209
    14  N    0.000660  15.538439  -8.578863   2.117434  -1.364410   0.548366
    15  N   -0.001073  -8.578863  16.647090  -2.449768   1.158053  -0.591428
    16  C   -0.000331   2.117434  -2.449768  15.221402  -0.633284  -0.653647
    17  C    0.000017  -1.364410   1.158053  -0.633284   6.656506  -0.848751
    18  C    0.000209   0.548366  -0.591428  -0.653647  -0.848751   9.875294
    19  C   -0.000044  -0.691320   0.411017   0.558188  -0.113506   1.207015
    20  H    0.000076  -0.000072   0.006154  -0.107744   0.422073   0.020320
    21  C    0.000049  -0.077363   0.421944  -6.153355   0.833450  -2.516245
    22  H   -0.000037  -0.118552   0.147170  -0.186144   0.023040   0.453592
    23  C    0.000005  -0.077148   0.144784  -0.495639  -0.238341  -1.818533
    24  H   -0.000001   0.003655  -0.009170   0.046556  -0.054388   0.046196
    25  H    0.000001   0.016299  -0.021463   0.058798   0.010392   0.045896
    26  N   -0.000000  -0.000915   0.002260  -0.006006   0.034953   0.063075
    27  H   -0.000000  -0.000094  -0.000398   0.003441   0.018915  -0.000535
    28  H    0.000000  -0.000797   0.001580  -0.010040  -0.006445  -0.018274
    29  O   -0.000135   0.308065  -0.237361   0.102634  -0.102570   0.005711
    30  O   -0.034134   0.006476  -0.000981   0.001424  -0.003253   0.001176
    31  H    0.003603  -0.011398   0.001488   0.006246   0.011373  -0.008319
    32  S   -0.135269  -0.000613   0.000947  -0.000677   0.000008   0.000183
    33  O    0.000370  -0.000001   0.000001  -0.000001  -0.000000   0.000000
    34  O    0.002778   0.000002  -0.000002   0.000001   0.000001  -0.000001
    35  O    0.009089  -0.000001   0.000001  -0.000002   0.000000   0.000000
    36  S    0.000553   0.766933  -0.580219   0.485812   0.042457  -0.316312
    37  O    0.000011   0.001499   0.012386   0.060647   0.001076  -0.036444
    38  O    0.000171  -0.089198  -0.067657  -0.065187  -0.002744   0.062601
    39  O    0.000009  -0.002414   0.016825   0.060591   0.002258  -0.038605
    40  H   -0.001766  -0.035085   0.147206  -0.291200  -0.037081   0.122091
              19         20         21         22         23         24
     1  C   -0.250294   0.006914   0.476007  -0.033068   0.091838  -0.005344
     2  C    0.022953   0.014383   0.018308   0.037616   0.011254  -0.000397
     3  C   -0.038055  -0.003129   0.050017  -0.002260   0.016193  -0.001088
     4  C   -0.001416   0.000263   0.001971   0.010682   0.007332  -0.000434
     5  C   -0.012699   0.000196   0.053391  -0.003262   0.002043  -0.000172
     6  C    0.047695  -0.001584  -0.131589   0.068273   0.029196   0.000481
     7  C    0.007217   0.008317  -0.004231  -0.003647   0.002216  -0.000260
     8  C   -0.001283   0.000158   0.004151   0.005660   0.000281  -0.000066
     9  H   -0.000081  -0.000061  -0.000413   0.000376   0.000351  -0.000005
    10  C    0.000221  -0.000558  -0.000691   0.002778   0.000258  -0.000022
    11  C    0.002005   0.003282   0.000174  -0.001107   0.000152  -0.000019
    12  H    0.000005   0.000010   0.000043  -0.000055  -0.000018   0.000000
    13  H   -0.000044   0.000076   0.000049  -0.000037   0.000005  -0.000001
    14  N   -0.691320  -0.000072  -0.077363  -0.118552  -0.077148   0.003655
    15  N    0.411017   0.006154   0.421944   0.147170   0.144784  -0.009170
    16  C    0.558188  -0.107744  -6.153355  -0.186144  -0.495639   0.046556
    17  C   -0.113506   0.422073   0.833450   0.023040  -0.238341  -0.054388
    18  C    1.207015   0.020320  -2.516245   0.453592  -1.818533   0.046196
    19  C   12.666440  -0.088330  -5.301092  -0.047566  -2.498696   0.621695
    20  H   -0.088330   0.491285   0.073128   0.000111   0.021938  -0.019358
    21  C   -5.301092   0.073128  15.952834   0.062001   2.334513  -0.126187
    22  H   -0.047566   0.000111   0.062001   0.516233  -0.045232  -0.000051
    23  C   -2.498696   0.021938   2.334513  -0.045232   9.080502  -0.210995
    24  H    0.621695  -0.019358  -0.126187  -0.000051  -0.210995   0.500200
    25  H    0.005714   0.001689   0.340868  -0.020508  -0.134656  -0.000139
    26  N   -0.029098  -0.000138  -0.099382   0.002616   0.019578  -0.007649
    27  H   -0.011939   0.001361   0.000052  -0.001280  -0.033311  -0.003478
    28  H   -0.013064  -0.000358   0.036614   0.003311  -0.017826   0.001449
    29  O   -0.030595   0.000165  -0.004170  -0.000531  -0.001247  -0.000405
    30  O   -0.000531  -0.000831   0.000062   0.000022   0.000014   0.000005
    31  H    0.005402   0.001509  -0.001646   0.000354  -0.000304   0.000046
    32  S    0.000003  -0.000013  -0.000003   0.000053   0.000004  -0.000001
    33  O    0.000000  -0.000000  -0.000000   0.000000   0.000000  -0.000000
    34  O    0.000000   0.000000  -0.000000   0.000000   0.000000  -0.000000
    35  O    0.000000  -0.000000  -0.000000   0.000000   0.000000  -0.000000
    36  S    0.047858  -0.001955  -0.063324  -0.064837  -0.040526   0.000993
    37  O    0.005803  -0.000167  -0.020543  -0.006528  -0.001895   0.000061
    38  O   -0.001437   0.000111   0.013563   0.001662   0.000390  -0.000011
    39  O    0.006156  -0.000171  -0.020762  -0.006011  -0.001546   0.000062
    40  H   -0.144280  -0.022645   0.086477  -0.000946   0.045589  -0.000773
              25         26         27         28         29         30
     1  C    0.000330  -0.001039  -0.000397   0.000927  -0.102423   0.020746
     2  C   -0.002566   0.000014   0.000001   0.000126   0.226676   0.003523
     3  C    0.000091  -0.000067  -0.000055   0.000065  -0.107617   0.213692
     4  C   -0.000470  -0.000016  -0.000008   0.000021  -0.100804   0.006036
     5  C    0.000147  -0.000001  -0.000014   0.000033   0.026464   0.023936
     6  C   -0.005881  -0.000029   0.000144  -0.000148   0.050892   0.002938
     7  C   -0.000046   0.000000   0.000010  -0.000002  -0.221609   0.220561
     8  C   -0.000048  -0.000001  -0.000003   0.000006  -0.025718  -0.010332
     9  H   -0.000042  -0.000001   0.000001  -0.000001   0.000309   0.000166
    10  C   -0.000034  -0.000000   0.000000   0.000000   0.020076  -0.010427
    11  C    0.000007   0.000000   0.000001  -0.000000   0.032212  -0.539410
    12  H    0.000002   0.000000  -0.000000   0.000000  -0.000123   0.000406
    13  H    0.000001  -0.000000  -0.000000   0.000000  -0.000135  -0.034134
    14  N    0.016299  -0.000915  -0.000094  -0.000797   0.308065   0.006476
    15  N   -0.021463   0.002260  -0.000398   0.001580  -0.237361  -0.000981
    16  C    0.058798  -0.006006   0.003441  -0.010040   0.102634   0.001424
    17  C    0.010392   0.034953   0.018915  -0.006445  -0.102570  -0.003253
    18  C    0.045896   0.063075  -0.000535  -0.018274   0.005711   0.001176
    19  C    0.005714  -0.029098  -0.011939  -0.013064  -0.030595  -0.000531
    20  H    0.001689  -0.000138   0.001361  -0.000358   0.000165  -0.000831
    21  C    0.340868  -0.099382   0.000052   0.036614  -0.004170   0.000062
    22  H   -0.020508   0.002616  -0.001280   0.003311  -0.000531   0.000022
    23  C   -0.134656   0.019578  -0.033311  -0.017826  -0.001247   0.000014
    24  H   -0.000139  -0.007649  -0.003478   0.001449  -0.000405   0.000005
    25  H    0.492761  -0.012637   0.003188  -0.005241  -0.000002  -0.000000
    26  N   -0.012637   6.649252   0.375849   0.378390  -0.000006  -0.000000
    27  H    0.003188   0.375849   0.402777  -0.033593   0.000013  -0.000000
    28  H   -0.005241   0.378390  -0.033593   0.401147  -0.000005  -0.000000
    29  O   -0.000002  -0.000006   0.000013  -0.000005   8.428242   0.018831
    30  O   -0.000000  -0.000000  -0.000000  -0.000000   0.018831   8.170328
    31  H    0.000009   0.000001   0.000001  -0.000001   0.031827   0.233423
    32  S   -0.000000  -0.000000   0.000000   0.000000   0.002100   0.002437
    33  O   -0.000000   0.000000   0.000000  -0.000000   0.000011   0.000129
    34  O    0.000000  -0.000000  -0.000000   0.000000   0.000012  -0.000000
    35  O   -0.000000  -0.000000   0.000000  -0.000000   0.000014   0.000077
    36  S    0.006880   0.000203   0.000043  -0.000281   0.002379  -0.000653
    37  O    0.000379   0.000005   0.000005  -0.000033   0.000811  -0.000009
    38  O   -0.000086  -0.000000  -0.000001   0.000005   0.000130   0.000027
    39  O    0.000154   0.000006   0.000005  -0.000027   0.000767  -0.000008
    40  H   -0.001087  -0.000583  -0.000243   0.000204   0.146132   0.015025
              31         32         33         34         35         36
     1  C    0.007664  -0.013614   0.000840  -0.000607   0.000985   1.207845
     2  C   -0.019497  -0.013851   0.003844  -0.009884   0.002080  -0.585731
     3  C   -0.220884  -0.100895   0.011449  -0.019996   0.013340  -0.209498
     4  C   -0.001749  -1.113790   0.074614  -0.065754   0.097220  -0.978559
     5  C   -0.033720   0.529957   0.001343  -0.012786   0.000458   0.090269
     6  C    0.017354  -0.195128  -0.005477  -0.017372  -0.004302  -4.182713
     7  C    0.162900  -0.019500  -0.175926   0.119833  -0.183966  -0.232727
     8  C    0.024575  -0.212860   0.073416   0.207713   0.084107   0.024147
     9  H   -0.000746   0.043200   0.001138   0.004428   0.000843  -0.206595
    10  C   -0.051644  -1.800711   0.383171  -0.560535   0.379736  -0.379159
    11  C    0.176075   0.862149  -0.347841   0.400327  -0.389824  -0.085141
    12  H    0.001233  -0.186341  -0.004626  -0.027785   0.000118   0.035879
    13  H    0.003603  -0.135269   0.000370   0.002778   0.009089   0.000553
    14  N   -0.011398  -0.000613  -0.000001   0.000002  -0.000001   0.766933
    15  N    0.001488   0.000947   0.000001  -0.000002   0.000001  -0.580219
    16  C    0.006246  -0.000677  -0.000001   0.000001  -0.000002   0.485812
    17  C    0.011373   0.000008  -0.000000   0.000001   0.000000   0.042457
    18  C   -0.008319   0.000183   0.000000  -0.000001   0.000000  -0.316312
    19  C    0.005402   0.000003   0.000000   0.000000   0.000000   0.047858
    20  H    0.001509  -0.000013  -0.000000   0.000000  -0.000000  -0.001955
    21  C   -0.001646  -0.000003  -0.000000  -0.000000  -0.000000  -0.063324
    22  H    0.000354   0.000053   0.000000   0.000000   0.000000  -0.064837
    23  C   -0.000304   0.000004   0.000000   0.000000   0.000000  -0.040526
    24  H    0.000046  -0.000001  -0.000000  -0.000000  -0.000000   0.000993
    25  H    0.000009  -0.000000  -0.000000   0.000000  -0.000000   0.006880
    26  N    0.000001  -0.000000   0.000000  -0.000000  -0.000000   0.000203
    27  H    0.000001   0.000000   0.000000  -0.000000   0.000000   0.000043
    28  H   -0.000001   0.000000  -0.000000   0.000000  -0.000000  -0.000281
    29  O    0.031827   0.002100   0.000011   0.000012   0.000014   0.002379
    30  O    0.233423   0.002437   0.000129  -0.000000   0.000077  -0.000653
    31  H    0.358262  -0.003616  -0.000368   0.000405  -0.000409   0.000758
    32  S   -0.003616  17.253226   0.178792   0.007259   0.148012  -0.023481
    33  O   -0.000368   0.178792   8.639550  -0.216025  -0.232462  -0.000240
    34  O    0.000405   0.007259  -0.216025   8.842214  -0.218651  -0.000723
    35  O   -0.000409   0.148012  -0.232462  -0.218651   8.688082  -0.000203
    36  S    0.000758  -0.023481  -0.000240  -0.000723  -0.000203  20.660036
    37  O   -0.000068  -0.000230  -0.000000  -0.000001  -0.000000   0.493190
    38  O   -0.000199  -0.000754  -0.000001  -0.000016  -0.000000  -0.992987
    39  O   -0.000075  -0.000213  -0.000000  -0.000001  -0.000000   0.488192
    40  H   -0.051443   0.002270   0.000052  -0.000108   0.000070  -0.023385
              37         38         39         40
     1  C   -0.049084   0.249095  -0.051705  -0.197959
     2  C   -0.027039   0.005945  -0.026337   0.074935
     3  C   -0.013770   0.133407  -0.012672   0.199678
     4  C   -0.005313  -0.019863  -0.003034   0.018481
     5  C   -0.070002   0.409717  -0.067052   0.065967
     6  C   -0.087759  -0.072350  -0.085414  -0.009763
     7  C   -0.003781   0.006890  -0.003997  -0.213900
     8  C   -0.029889   0.035682  -0.031767   0.001659
     9  H   -0.001649  -0.059779  -0.001040   0.003125
    10  C   -0.009304  -0.025045  -0.009157   0.039954
    11  C   -0.000611   0.007971  -0.000663  -0.156658
    12  H    0.000763   0.007184   0.000646  -0.000763
    13  H    0.000011   0.000171   0.000009  -0.001766
    14  N    0.001499  -0.089198  -0.002414  -0.035085
    15  N    0.012386  -0.067657   0.016825   0.147206
    16  C    0.060647  -0.065187   0.060591  -0.291200
    17  C    0.001076  -0.002744   0.002258  -0.037081
    18  C   -0.036444   0.062601  -0.038605   0.122091
    19  C    0.005803  -0.001437   0.006156  -0.144280
    20  H   -0.000167   0.000111  -0.000171  -0.022645
    21  C   -0.020543   0.013563  -0.020762   0.086477
    22  H   -0.006528   0.001662  -0.006011  -0.000946
    23  C   -0.001895   0.000390  -0.001546   0.045589
    24  H    0.000061  -0.000011   0.000062  -0.000773
    25  H    0.000379  -0.000086   0.000154  -0.001087
    26  N    0.000005  -0.000000   0.000006  -0.000583
    27  H    0.000005  -0.000001   0.000005  -0.000243
    28  H   -0.000033   0.000005  -0.000027   0.000204
    29  O    0.000811   0.000130   0.000767   0.146132
    30  O   -0.000009   0.000027  -0.000008   0.015025
    31  H   -0.000068  -0.000199  -0.000075  -0.051443
    32  S   -0.000230  -0.000754  -0.000213   0.002270
    33  O   -0.000000  -0.000001  -0.000000   0.000052
    34  O   -0.000001  -0.000016  -0.000001  -0.000108
    35  O   -0.000000  -0.000000  -0.000000   0.000070
    36  S    0.493190  -0.992987   0.488192  -0.023385
    37  O    8.700113  -0.291255  -0.234341  -0.000980
    38  O   -0.291255   9.386666  -0.290724   0.002901
    39  O   -0.234341  -0.290724   8.698309  -0.000957
    40  H   -0.000980   0.002901  -0.000957   0.514985
 Mulliken charges:
               1
     1  C   -0.178423
     2  C   -0.094759
     3  C    0.556556
     4  C    0.624555
     5  C   -0.252213
     6  C   -0.685097
     7  C   -0.636231
     8  C   -0.292431
     9  H    0.263834
    10  C   -0.674461
    11  C   -0.472053
    12  H    0.221152
    13  H    0.241642
    14  N    0.025827
    15  N   -0.000961
    16  C   -0.040163
    17  C    0.029447
    18  C   -0.209305
    19  C   -0.340062
    20  H    0.173670
    21  C   -0.238626
    22  H    0.206072
    23  C   -0.192521
    24  H    0.219013
    25  H    0.221302
    26  N   -0.368635
    27  H    0.279544
    28  H    0.282257
    29  O   -0.469151
    30  O   -0.340890
    31  H    0.361574
    32  S    0.790958
    33  O   -0.385749
    34  O   -0.434725
    35  O   -0.394413
    36  S    0.614823
    37  O   -0.386053
    38  O   -0.344823
    39  O   -0.385287
    40  H    0.704803
 Sum of Mulliken charges =  -2.00000
 Mulliken charges with hydrogens summed into heavy atoms:
               1
     1  C   -0.178423
     2  C   -0.094759
     3  C    0.556556
     4  C    0.624555
     5  C    0.011622
     6  C   -0.685097
     7  C   -0.636231
     8  C   -0.071279
    10  C   -0.674461
    11  C   -0.230410
    14  N    0.025827
    15  N   -0.000961
    16  C   -0.040163
    17  C    0.203117
    18  C   -0.003233
    19  C   -0.121049
    21  C   -0.017324
    23  C   -0.192521
    26  N    0.193165
    29  O    0.235653
    30  O    0.020684
    32  S    0.790958
    33  O   -0.385749
    34  O   -0.434725
    35  O   -0.394413
    36  S    0.614823
    37  O   -0.386053
    38  O   -0.344823
    39  O   -0.385287
 APT charges:
               1
     1  C   -0.691546
     2  C    0.709623
     3  C   -0.135343
     4  C    0.506817
     5  C   -0.607884
     6  C    0.129691
     7  C    0.671122
     8  C   -0.620476
     9  H    0.116438
    10  C   -0.044412
    11  C   -0.235963
    12  H    0.111543
    13  H    0.102534
    14  N    0.278897
    15  N    0.481099
    16  C   -0.759080
    17  C    0.430271
    18  C    0.386382
    19  C   -0.557823
    20  H    0.090318
    21  C   -0.596728
    22  H    0.121929
    23  C    1.406531
    24  H    0.043587
    25  H    0.036483
    26  N   -1.547302
    27  H    0.287231
    28  H    0.286771
    29  O   -1.018615
    30  O   -1.067406
    31  H    0.570711
    32  S    3.570247
    33  O   -1.450541
    34  O   -1.377622
    35  O   -1.448782
    36  S    3.374324
    37  O   -1.377007
    38  O   -1.337835
    39  O   -1.377381
    40  H    0.539197
 Sum of APT charges =  -2.00000
 APT charges with hydrogens summed into heavy atoms:
               1
     1  C   -0.691546
     2  C    0.709623
     3  C   -0.135343
     4  C    0.506817
     5  C   -0.491446
     6  C    0.129691
     7  C    0.671122
     8  C   -0.508933
    10  C   -0.044412
    11  C   -0.133429
    14  N    0.278897
    15  N    0.481099
    16  C   -0.759080
    17  C    0.520589
    18  C    0.508311
    19  C   -0.514236
    21  C   -0.560246
    23  C    1.406531
    26  N   -0.973299
    29  O   -0.479418
    30  O   -0.496695
    32  S    3.570247
    33  O   -1.450541
    34  O   -1.377622
    35  O   -1.448782
    36  S    3.374324
    37  O   -1.377007
    38  O   -1.337835
    39  O   -1.377381
 Electronic spatial extent (au):  <R**2>=          18118.8029
 Charge=             -2.0000 electrons
 Dipole moment (field-independent basis, Debye):
    X=             34.1486    Y=            -15.9425    Z=             -1.0412  Tot=             37.7011
 Quadrupole moment (field-independent basis, Debye-Ang):
   XX=           -360.0425   YY=           -258.3408   ZZ=           -208.9064
   XY=            -55.5132   XZ=             -8.9821   YZ=              1.4509
 Traceless Quadrupole moment (field-independent basis, Debye-Ang):
   XX=            -84.2792   YY=             17.4224   ZZ=             66.8568
   XY=            -55.5132   XZ=             -8.9821   YZ=              1.4509
 Octapole moment (field-independent basis, Debye-Ang**2):
  XXX=           2065.5265  YYY=           -266.4191  ZZZ=             -2.0824  XYY=             63.7730
  XXY=            -25.3575  XXZ=            -80.3792  XZZ=             19.3493  YZZ=            -13.2418
  YYZ=             -1.9107  XYZ=             12.8623
 Hexadecapole moment (field-independent basis, Debye-Ang**3):
 XXXX=         -24210.3302 YYYY=          -5191.4598 ZZZZ=           -478.8883 XXXY=          -1560.4468
 XXXZ=           -719.1838 YYYX=           -493.7690 YYYZ=              5.4107 ZZZX=             -1.4017
 ZZZY=              1.6521 XXYY=          -4068.5252 XXZZ=          -3994.5257 YYZZ=           -893.3037
 XXYZ=            112.3567 YYXZ=            -32.4133 ZZXY=            -89.0116
 N-N= 3.041987103552D+03 E-N=-1.126234856858D+04  KE= 2.173766722401D+03
  Exact polarizability:     832.696     -11.031     420.748       2.109      -0.318     230.497
 Approx polarizability:     568.210     -11.503     382.755       1.418      -0.267     224.797
 PrsmSu:  requested number of processors reduced to:  25 ShMem   1 Linda.
 PrsmSu:  requested number of processors reduced to:  27 ShMem   1 Linda.
 D2PCM: PCM CHGder 2nd derivatives, FixD1E=F FixD2E=F DoIter=F DoCFld=F I1PDM=0
 CoulSu:  requested number of processors reduced to:  22 ShMem   1 Linda.
 CoulSu:  requested number of processors reduced to:  23 ShMem   1 Linda.
 CoulSu:  requested number of processors reduced to:  19 ShMem   1 Linda.
 CoulSu:  requested number of processors reduced to:  20 ShMem   1 Linda.
 CoulSu:  requested number of processors reduced to:  26 ShMem   1 Linda.
 CoulSu:  requested number of processors reduced to:  25 ShMem   1 Linda.
 CoulSu:  requested number of processors reduced to:  25 ShMem   1 Linda.
 CoulSu:  requested number of processors reduced to:  26 ShMem   1 Linda.
 CoulSu:  requested number of processors reduced to:  26 ShMem   1 Linda.
 CoulSu:  requested number of processors reduced to:  26 ShMem   1 Linda.
 CoulSu:  requested number of processors reduced to:  26 ShMem   1 Linda.
 CoulSu:  requested number of processors reduced to:  25 ShMem   1 Linda.
 CoulSu:  requested number of processors reduced to:  26 ShMem   1 Linda.
 CoulSu:  requested number of processors reduced to:  26 ShMem   1 Linda.
 CoulSu:  requested number of processors reduced to:  25 ShMem   1 Linda.
 CoulSu:  requested number of processors reduced to:  26 ShMem   1 Linda.
 CoulSu:  requested number of processors reduced to:  26 ShMem   1 Linda.
 CoulSu:  requested number of processors reduced to:  29 ShMem   1 Linda.
 CoulSu:  requested number of processors reduced to:  34 ShMem   1 Linda.
 Calling FoFJK, ICntrl=    100127 FMM=F ISym2X=0 I1Cent= 0 IOpClX= 0 NMat=1 NMatS=1 NMatT=0.
 CoulSu:  requested number of processors reduced to:  26 ShMem   1 Linda.
 CoulSu:  requested number of processors reduced to:  26 ShMem   1 Linda.
 CalDSu:  requested number of processors reduced to:  29 ShMem   1 Linda.
 Full mass-weighted force constant matrix:
 Low frequencies ---   -9.0353   -4.2555    0.0003    0.0012    0.0018    4.9168
 Low frequencies ---   20.7894   33.5008   38.2746
 Diagonal vibrational polarizability:
      354.4784841     144.1769838     304.4150836
 Harmonic frequencies (cm**-1), IR intensities (KM/Mole), Raman scattering
 activities (A**4/AMU), depolarization ratios for plane and unpolarized
 incident light, reduced masses (AMU), force constants (mDyne/A),
 and normal coordinates:
                      1                      2                      3
                      A                      A                      A
 Frequencies --     20.7851                32.5515                38.0308
 Red. masses --      9.1439                11.2877                 5.3017
 Frc consts  --      0.0023                 0.0070                 0.0045
 IR Inten    --      0.6823                 1.9462                 0.3229
  Atom  AN      X      Y      Z        X      Y      Z        X      Y      Z
     1   6     0.00   0.00  -0.13    -0.00   0.00   0.04     0.00   0.00   0.00
     2   6     0.00   0.00  -0.17    -0.00   0.00   0.06     0.00   0.00  -0.02
     3   6     0.00   0.00  -0.14    -0.00   0.00   0.04     0.00   0.00  -0.03
     4   6    -0.00   0.00  -0.07     0.00   0.00   0.05    -0.00   0.00   0.02
     5   6    -0.00   0.00  -0.07     0.00   0.00   0.04    -0.00   0.00   0.06
     6   6    -0.00   0.00  -0.09     0.00   0.00   0.03    -0.00   0.00   0.04
     7   6     0.00   0.00  -0.14    -0.00   0.00   0.02     0.00   0.00  -0.09
     8   6    -0.00   0.00  -0.00    -0.00   0.00   0.04    -0.00   0.00   0.02
     9   1    -0.00   0.00  -0.04     0.00   0.00   0.04    -0.00   0.00   0.09
    10   6     0.00   0.00   0.01    -0.00   0.00   0.03     0.00  -0.00  -0.02
    11   6     0.00   0.00  -0.06    -0.00   0.00   0.01     0.00  -0.00  -0.08
    12   1    -0.00   0.00   0.06    -0.00   0.00   0.06     0.00   0.00   0.06
    13   1     0.00   0.00  -0.05    -0.00   0.00   0.01     0.00  -0.00  -0.13
    14   7     0.00   0.00  -0.09    -0.00  -0.00   0.02     0.00   0.00  -0.01
    15   7    -0.00   0.00  -0.11    -0.00  -0.00   0.07     0.00   0.00   0.03
    16   6    -0.00   0.00  -0.02    -0.00  -0.00   0.04    -0.00   0.00   0.01
    17   6    -0.00  -0.00  -0.01    -0.00  -0.00   0.16    -0.00  -0.00   0.21
    18   6     0.00  -0.00   0.06    -0.00  -0.00  -0.12     0.00  -0.00  -0.20
    19   6    -0.00  -0.00   0.10    -0.00  -0.00   0.14    -0.00  -0.00   0.23
    20   1    -0.00   0.00  -0.08    -0.00  -0.00   0.28    -0.00  -0.00   0.37
    21   6     0.00  -0.00   0.17    -0.00  -0.00  -0.14     0.00  -0.00  -0.20
    22   1     0.00  -0.00   0.05    -0.00   0.00  -0.22     0.00   0.00  -0.36
    23   6    -0.00  -0.00   0.19    -0.00  -0.00  -0.02    -0.00  -0.00   0.02
    24   1    -0.00  -0.00   0.11    -0.00  -0.00   0.24    -0.00  -0.00   0.40
    25   1     0.00  -0.00   0.24    -0.00   0.00  -0.27     0.00  -0.00  -0.37
    26   7    -0.00  -0.01   0.31     0.00   0.00  -0.04    -0.00   0.00   0.03
    27   1     0.02  -0.00   0.32    -0.01  -0.03   0.05    -0.00  -0.04   0.18
    28   1     0.02  -0.00   0.37    -0.01  -0.03  -0.15    -0.00  -0.04  -0.11
    29   8     0.00   0.00  -0.22    -0.00   0.00   0.09     0.00   0.00  -0.04
    30   8     0.00   0.00  -0.21    -0.00   0.00   0.01     0.00   0.00  -0.16
    31   1     0.00   0.00  -0.23    -0.00   0.00   0.03     0.00   0.00  -0.14
    32  16     0.00  -0.00   0.15     0.00  -0.00  -0.02     0.00  -0.00   0.01
    33   8     0.10  -0.10   0.13    -0.05  -0.38  -0.23     0.03   0.10   0.07
    34   8    -0.01   0.00   0.28     0.00   0.02   0.39    -0.00  -0.01  -0.09
    35   8    -0.09   0.09   0.13     0.06   0.35  -0.27    -0.03  -0.09   0.08
    36  16    -0.00   0.00  -0.06     0.00   0.00  -0.05    -0.00   0.00   0.02
    37   8    -0.05  -0.00  -0.02     0.10   0.02  -0.11     0.13  -0.04  -0.06
    38   8    -0.00   0.00  -0.09     0.00   0.00   0.02    -0.00   0.00   0.16
    39   8     0.05   0.01  -0.02    -0.10  -0.02  -0.11    -0.13   0.04  -0.06
    40   1     0.00   0.00  -0.19    -0.00   0.00   0.10     0.00   0.00   0.00
                      4                      5                      6
                      A                      A                      A
 Frequencies --     49.1088                52.0526                55.4362
 Red. masses --      7.4991                 7.2928                 8.1773
 Frc consts  --      0.0107                 0.0116                 0.0148
 IR Inten    --      1.9831                 8.4624                 1.0843
  Atom  AN      X      Y      Z        X      Y      Z        X      Y      Z
     1   6    -0.01  -0.11  -0.00    -0.00  -0.00   0.08    -0.00  -0.00  -0.11
     2   6    -0.03  -0.09  -0.00    -0.00  -0.00   0.05    -0.00  -0.00  -0.06
     3   6    -0.03  -0.07  -0.01    -0.00  -0.00   0.08    -0.00  -0.00   0.05
     4   6     0.00  -0.05  -0.01    -0.00  -0.00   0.18     0.00  -0.00   0.02
     5   6     0.02  -0.07  -0.01     0.00  -0.00   0.22     0.00  -0.00  -0.00
     6   6     0.02  -0.10  -0.00     0.00  -0.00   0.15     0.00  -0.00  -0.05
     7   6    -0.07  -0.04  -0.01    -0.00  -0.00  -0.03    -0.00  -0.00   0.17
     8   6     0.00  -0.01  -0.00    -0.00   0.00   0.18     0.00  -0.00   0.03
     9   1     0.04  -0.06  -0.01     0.00  -0.00   0.26     0.00  -0.00   0.03
    10   6    -0.03   0.01  -0.00    -0.00   0.00   0.06    -0.00  -0.00   0.08
    11   6    -0.06  -0.00  -0.00    -0.00  -0.00  -0.04    -0.00  -0.00   0.17
    12   1     0.03   0.00  -0.00     0.00   0.00   0.25     0.00  -0.00  -0.02
    13   1    -0.09   0.01  -0.00    -0.00   0.00  -0.15    -0.00  -0.00   0.25
    14   7    -0.02  -0.12   0.00    -0.00  -0.00   0.05    -0.00  -0.00  -0.18
    15   7     0.01  -0.10   0.01     0.00  -0.00  -0.04     0.00  -0.00  -0.22
    16   6     0.02  -0.02   0.01     0.00  -0.00  -0.03     0.00  -0.00  -0.19
    17   6     0.12   0.03   0.01     0.00   0.00  -0.17     0.00   0.00  -0.12
    18   6    -0.07   0.04   0.00    -0.00   0.00   0.12    -0.00   0.00  -0.16
    19   6     0.13   0.14   0.01     0.00   0.00  -0.14     0.01   0.00   0.02
    20   1     0.19  -0.03   0.02     0.01   0.00  -0.30     0.01  -0.00  -0.15
    21   6    -0.06   0.16  -0.00    -0.00   0.00   0.17    -0.00   0.01  -0.03
    22   1    -0.14   0.01  -0.00    -0.00   0.00   0.21    -0.00   0.00  -0.23
    23   6     0.04   0.21   0.00     0.00   0.01   0.04     0.00   0.01   0.09
    24   1     0.21   0.18   0.02     0.01   0.01  -0.24     0.01   0.01   0.09
    25   1    -0.13   0.21  -0.01    -0.00   0.00   0.30    -0.00   0.01   0.00
    26   7     0.06   0.32  -0.01    -0.00   0.00   0.10    -0.00   0.01   0.27
    27   1     0.13   0.35  -0.01     0.02   0.04   0.01     0.04   0.00   0.36
    28   1    -0.01   0.37  -0.03     0.01   0.04   0.23     0.03   0.00   0.33
    29   8    -0.05  -0.11  -0.00    -0.00  -0.00  -0.02    -0.00  -0.00  -0.13
    30   8    -0.10  -0.05  -0.01    -0.00  -0.00  -0.15    -0.00  -0.00   0.29
    31   1    -0.10  -0.09  -0.01    -0.00  -0.00  -0.14    -0.00  -0.00   0.21
    32  16    -0.03   0.10   0.00    -0.00   0.00  -0.02    -0.00   0.00  -0.03
    33   8    -0.05   0.12   0.01    -0.06   0.04  -0.02    -0.10   0.01  -0.07
    34   8     0.05   0.12   0.01     0.00   0.00  -0.07     0.01   0.01  -0.06
    35   8    -0.07   0.13   0.00     0.05  -0.03  -0.02     0.09   0.01  -0.07
    36  16     0.04  -0.11  -0.00     0.00  -0.00  -0.06     0.00  -0.00   0.04
    37   8     0.03  -0.12   0.01     0.20   0.11  -0.19     0.07  -0.12  -0.01
    38   8     0.06  -0.10  -0.01     0.00  -0.00   0.02    -0.00  -0.00   0.20
    39   8     0.05  -0.12   0.00    -0.19  -0.12  -0.19    -0.07   0.11  -0.01
    40   1    -0.05  -0.14   0.00    -0.00  -0.00  -0.07    -0.00  -0.01  -0.17
                      7                      8                      9
                      A                      A                      A
 Frequencies --     78.4408                95.2555               100.3754
 Red. masses --      8.6314                14.2649                 8.3166
 Frc consts  --      0.0313                 0.0763                 0.0494
 IR Inten    --      1.3514                16.4523                 0.3148
  Atom  AN      X      Y      Z        X      Y      Z        X      Y      Z
     1   6    -0.00  -0.00  -0.01    -0.04   0.04   0.00    -0.00  -0.00   0.05
     2   6    -0.00   0.00   0.01    -0.07   0.08   0.00    -0.00  -0.00   0.21
     3   6    -0.00   0.00  -0.08    -0.06   0.13   0.00     0.00  -0.00   0.08
     4   6     0.00   0.00  -0.20    -0.05   0.14   0.00     0.00  -0.00   0.01
     5   6     0.00  -0.00  -0.18     0.01   0.12   0.00    -0.00  -0.00  -0.01
     6   6     0.00  -0.00  -0.07     0.01   0.06   0.00    -0.00  -0.00  -0.01
     7   6    -0.00   0.00  -0.01    -0.05   0.12   0.00    -0.00  -0.00  -0.05
     8   6     0.00   0.00  -0.24    -0.06   0.13  -0.00     0.00  -0.00  -0.06
     9   1     0.00  -0.00  -0.23     0.05   0.15   0.00    -0.00  -0.00  -0.03
    10   6     0.00   0.00  -0.14    -0.05   0.11  -0.01     0.00  -0.00  -0.10
    11   6    -0.00   0.00  -0.04    -0.04   0.12  -0.01    -0.00  -0.00  -0.13
    12   1    -0.00  -0.00  -0.30    -0.07   0.13   0.00     0.00  -0.00  -0.06
    13   1    -0.00   0.00   0.05    -0.04   0.12  -0.01    -0.00  -0.00  -0.21
    14   7    -0.00  -0.00   0.00    -0.04   0.00  -0.00    -0.00  -0.00  -0.05
    15   7    -0.00  -0.00   0.10    -0.06  -0.00  -0.01     0.00  -0.00  -0.09
    16   6    -0.00  -0.00   0.09    -0.06   0.00  -0.01     0.00   0.00  -0.19
    17   6    -0.00  -0.00  -0.04    -0.04   0.02  -0.01     0.00   0.00  -0.18
    18   6    -0.00  -0.00   0.19    -0.08   0.02  -0.01     0.00   0.00  -0.19
    19   6    -0.00   0.00  -0.10    -0.03   0.05  -0.00     0.00   0.00  -0.09
    20   1     0.00  -0.00  -0.12    -0.02   0.00  -0.01     0.00   0.00  -0.21
    21   6    -0.00  -0.00   0.16    -0.08   0.05  -0.00     0.00   0.00  -0.10
    22   1    -0.00  -0.00   0.28    -0.09   0.01  -0.01     0.00   0.00  -0.22
    23   6    -0.00   0.00   0.00    -0.06   0.06   0.00     0.00   0.00   0.01
    24   1     0.00   0.00  -0.22    -0.01   0.05  -0.00     0.00   0.00  -0.05
    25   1    -0.00  -0.00   0.25    -0.10   0.06  -0.00     0.00   0.00  -0.07
    26   7     0.00  -0.00  -0.06    -0.05   0.10   0.01    -0.01   0.00   0.25
    27   1    -0.01   0.03  -0.18    -0.03   0.11   0.01     0.04  -0.00   0.34
    28   1    -0.01   0.03   0.01    -0.07   0.11   0.00     0.04  -0.00   0.34
    29   8    -0.00   0.00   0.12    -0.10   0.06   0.01     0.00  -0.00   0.47
    30   8    -0.00   0.00   0.11    -0.06   0.12   0.01    -0.00  -0.00  -0.13
    31   1    -0.00   0.00   0.14    -0.06   0.11   0.01    -0.00  -0.00  -0.01
    32  16     0.00   0.00   0.01    -0.07  -0.14  -0.00     0.00   0.00  -0.01
    33   8     0.14  -0.02   0.05     0.05  -0.22  -0.00     0.10  -0.01   0.02
    34   8    -0.01   0.00   0.07    -0.33  -0.19  -0.01     0.00   0.00   0.03
    35   8    -0.13   0.02   0.05     0.06  -0.23   0.01    -0.09   0.02   0.02
    36  16    -0.00   0.00  -0.00     0.22  -0.06   0.00    -0.00  -0.00   0.00
    37   8     0.20  -0.14  -0.14     0.22  -0.17   0.00    -0.05  -0.02   0.04
    38   8    -0.00  -0.00   0.29     0.37   0.09   0.00    -0.00  -0.00  -0.02
    39   8    -0.20   0.14  -0.14     0.22  -0.17   0.00     0.05   0.02   0.04
    40   1    -0.00  -0.00   0.15    -0.09   0.03   0.00    -0.00  -0.00   0.25
                     10                     11                     12
                      A                      A                      A
 Frequencies --    119.1324               146.2123               158.8123
 Red. masses --     10.8406                 8.9130                 8.1108
 Frc consts  --      0.0906                 0.1123                 0.1205
 IR Inten    --      0.3337                 0.0515                 4.9715
  Atom  AN      X      Y      Z        X      Y      Z        X      Y      Z
     1   6    -0.00  -0.00   0.19    -0.07   0.06   0.01     0.02  -0.01   0.01
     2   6    -0.00  -0.00  -0.00     0.01   0.02  -0.00     0.00   0.00  -0.00
     3   6    -0.00  -0.00  -0.01     0.01  -0.04  -0.01    -0.02   0.00  -0.01
     4   6     0.00  -0.00  -0.05    -0.03  -0.06  -0.01    -0.05  -0.00  -0.01
     5   6    -0.00  -0.00   0.09    -0.10  -0.01  -0.01    -0.02  -0.02  -0.01
     6   6    -0.00  -0.00   0.24    -0.10   0.02   0.00    -0.02  -0.03   0.00
     7   6    -0.00  -0.00   0.01     0.05  -0.08  -0.00    -0.07   0.03  -0.00
     8   6     0.00  -0.00  -0.19    -0.03  -0.13  -0.01    -0.06   0.02  -0.01
     9   1    -0.00  -0.00   0.03    -0.14  -0.03  -0.01    -0.00  -0.01  -0.02
    10   6     0.00  -0.00  -0.24     0.01  -0.15   0.01    -0.10   0.04   0.00
    11   6    -0.00  -0.00  -0.15     0.04  -0.14   0.01    -0.07   0.04   0.01
    12   1     0.00  -0.00  -0.19    -0.07  -0.15  -0.02    -0.03   0.03  -0.01
    13   1    -0.00  -0.00  -0.10     0.07  -0.16   0.02    -0.06   0.03   0.01
    14   7    -0.00  -0.00   0.24    -0.07   0.17   0.01     0.06   0.06   0.01
    15   7     0.00  -0.00  -0.05    -0.03   0.20   0.01     0.14   0.10   0.01
    16   6     0.00   0.00  -0.08    -0.05   0.20   0.00     0.17   0.13   0.00
    17   6     0.00   0.00  -0.07    -0.14   0.16  -0.00     0.13   0.11  -0.00
    18   6    -0.00   0.00  -0.13     0.02   0.15  -0.00     0.26   0.08  -0.00
    19   6     0.00   0.00  -0.02    -0.16   0.06  -0.00     0.12   0.02  -0.01
    20   1     0.00  -0.00  -0.07    -0.21   0.22  -0.00     0.09   0.14  -0.00
    21   6    -0.00   0.00  -0.11     0.01   0.05  -0.01     0.27  -0.01  -0.01
    22   1    -0.00   0.00  -0.18     0.09   0.19  -0.00     0.34   0.12  -0.00
    23   6     0.00   0.00  -0.01    -0.08   0.01  -0.00     0.21  -0.04  -0.00
    24   1     0.00   0.00   0.02    -0.23   0.03  -0.01     0.05  -0.02  -0.01
    25   1    -0.00   0.00  -0.15     0.08   0.00  -0.01     0.31  -0.04  -0.01
    26   7    -0.00   0.00   0.11    -0.10  -0.12   0.01     0.20  -0.16   0.00
    27   1     0.02  -0.01   0.18    -0.18  -0.16   0.01     0.12  -0.20   0.01
    28   1     0.02  -0.01   0.12    -0.02  -0.17   0.01     0.28  -0.21   0.01
    29   8     0.00  -0.00  -0.25     0.08   0.05  -0.00     0.01  -0.00  -0.00
    30   8    -0.00  -0.00   0.30     0.13  -0.05  -0.01    -0.10   0.01  -0.00
    31   1    -0.00  -0.00   0.24     0.13   0.01  -0.01    -0.10  -0.02  -0.00
    32  16     0.00   0.00  -0.04     0.02   0.01   0.00    -0.15   0.00   0.00
    33   8     0.24  -0.03   0.03    -0.09   0.08   0.00    -0.15  -0.01  -0.00
    34   8    -0.01   0.01   0.04     0.22   0.05   0.00    -0.20  -0.01   0.00
    35   8    -0.22   0.03   0.03    -0.09   0.08  -0.00    -0.14  -0.01   0.00
    36  16    -0.00  -0.00   0.06     0.05  -0.09   0.00    -0.02  -0.04   0.00
    37   8     0.05   0.23   0.03     0.04  -0.20   0.00    -0.02  -0.06   0.00
    38   8    -0.01  -0.00  -0.08     0.18   0.04   0.00    -0.01  -0.04   0.00
    39   8    -0.06  -0.23   0.03     0.04  -0.21  -0.01    -0.03  -0.06  -0.00
    40   1    -0.00  -0.00  -0.23     0.08   0.14  -0.00    -0.02  -0.03   0.00
                     13                     14                     15
                      A                      A                      A
 Frequencies --    165.0524               205.5309               213.2276
 Red. masses --      6.6946                12.0105                 6.4593
 Frc consts  --      0.1075                 0.2989                 0.1730
 IR Inten    --      0.3248                 3.3209                 4.1475
  Atom  AN      X      Y      Z        X      Y      Z        X      Y      Z
     1   6     0.00  -0.00   0.15    -0.03  -0.04   0.00     0.00  -0.00   0.05
     2   6    -0.00  -0.00  -0.01    -0.02  -0.04  -0.00     0.00  -0.00  -0.01
     3   6     0.00   0.00  -0.11    -0.00   0.01   0.00     0.00  -0.00   0.01
     4   6     0.00   0.00  -0.20     0.03   0.03   0.01     0.00  -0.00   0.09
     5   6     0.01   0.00  -0.21    -0.00  -0.00  -0.00     0.00  -0.00  -0.01
     6   6     0.00   0.00   0.04    -0.03  -0.07  -0.01     0.00   0.00  -0.08
     7   6     0.00   0.00  -0.01    -0.05   0.06   0.00     0.00  -0.00  -0.03
     8   6     0.00   0.00  -0.16     0.07   0.15   0.01    -0.00  -0.00   0.18
     9   1     0.01   0.00  -0.33     0.03   0.01  -0.01     0.00  -0.00  -0.05
    10   6     0.00   0.00   0.14     0.07   0.19   0.00    -0.00  -0.01  -0.01
    11   6     0.00   0.00   0.24    -0.02   0.16   0.00     0.00  -0.01  -0.17
    12   1     0.00   0.00  -0.29     0.13   0.18   0.02    -0.00  -0.00   0.31
    13   1    -0.00   0.00   0.41    -0.10   0.21  -0.00     0.00  -0.01  -0.29
    14   7     0.00  -0.01   0.27    -0.03   0.06   0.01     0.00  -0.00   0.09
    15   7    -0.00  -0.01   0.09     0.00   0.09   0.02    -0.00  -0.00   0.32
    16   6    -0.00  -0.01  -0.01    -0.00   0.14   0.01    -0.00  -0.00   0.14
    17   6     0.00  -0.01  -0.08    -0.06   0.12  -0.00     0.00  -0.00  -0.04
    18   6    -0.01  -0.01  -0.09     0.04   0.12  -0.00    -0.00  -0.00  -0.03
    19   6     0.00  -0.00  -0.10    -0.08   0.05  -0.01    -0.00   0.00  -0.22
    20   1     0.00  -0.01  -0.09    -0.11   0.16  -0.00     0.00  -0.00  -0.02
    21   6    -0.01  -0.00  -0.11     0.04   0.05  -0.01    -0.00   0.00  -0.17
    22   1    -0.02  -0.01  -0.10     0.09   0.14  -0.00    -0.00  -0.00  -0.01
    23   6    -0.00   0.00  -0.03    -0.03   0.01  -0.01    -0.00   0.00  -0.09
    24   1     0.01  -0.00  -0.12    -0.13   0.03  -0.02     0.00   0.00  -0.31
    25   1    -0.01   0.00  -0.15     0.09   0.01  -0.02    -0.01   0.00  -0.23
    26   7    -0.01   0.01   0.13    -0.04  -0.10   0.01    -0.01   0.00   0.19
    27   1     0.03   0.01   0.20    -0.12  -0.14   0.02     0.06  -0.00   0.31
    28   1     0.02   0.01   0.20     0.03  -0.15   0.02     0.06   0.01   0.35
    29   8    -0.00  -0.00  -0.02    -0.04  -0.06  -0.01     0.00  -0.00  -0.13
    30   8    -0.00   0.00  -0.16    -0.15   0.02  -0.00     0.00  -0.00   0.09
    31   1     0.00   0.00  -0.20    -0.15  -0.07  -0.00     0.00  -0.00   0.09
    32  16     0.00  -0.00   0.05     0.17   0.07  -0.00    -0.01  -0.00  -0.00
    33   8    -0.16   0.01  -0.00     0.34  -0.01   0.02    -0.00   0.00  -0.00
    34   8     0.01  -0.00   0.00    -0.10   0.01  -0.00     0.00   0.00  -0.00
    35   8     0.16  -0.02  -0.00     0.37  -0.02  -0.02    -0.02   0.00   0.00
    36  16     0.00   0.01   0.03    -0.11  -0.16  -0.00     0.01   0.00  -0.07
    37   8     0.04   0.07   0.00    -0.14  -0.18   0.01    -0.05  -0.15  -0.03
    38   8    -0.00   0.00   0.02    -0.13  -0.18  -0.00     0.00   0.00  -0.02
    39   8    -0.04  -0.05   0.00    -0.13  -0.16  -0.02     0.06   0.17  -0.03
    40   1    -0.00  -0.00  -0.01    -0.06  -0.07   0.01     0.00   0.00   0.11
                     16                     17                     18
                      A                      A                      A
 Frequencies --    235.9074               247.6586               254.7048
 Red. masses --      9.0753                 7.3179                 7.8524
 Frc consts  --      0.2976                 0.2644                 0.3001
 IR Inten    --      8.3951                10.4392                 0.1023
  Atom  AN      X      Y      Z        X      Y      Z        X      Y      Z
     1   6    -0.02  -0.09  -0.00    -0.00  -0.00   0.20    -0.00   0.00   0.05
     2   6    -0.00  -0.13  -0.00     0.00  -0.00   0.11    -0.01   0.00   0.08
     3   6    -0.00  -0.14  -0.00     0.00  -0.00   0.13    -0.01   0.00   0.24
     4   6     0.06  -0.10  -0.00     0.00  -0.00   0.06    -0.00   0.00   0.14
     5   6     0.07  -0.09   0.00     0.00  -0.00  -0.16    -0.00   0.00   0.08
     6   6     0.08  -0.05   0.00     0.00  -0.00  -0.05    -0.00   0.00   0.01
     7   6    -0.09  -0.11   0.00    -0.00  -0.00   0.01    -0.01  -0.00   0.20
     8   6     0.06  -0.04  -0.00     0.00  -0.00   0.10    -0.00  -0.00  -0.13
     9   1     0.04  -0.10   0.00     0.00  -0.00  -0.37    -0.00   0.00   0.01
    10   6    -0.01   0.01  -0.00     0.00  -0.00   0.00    -0.00  -0.00  -0.00
    11   6    -0.07  -0.02   0.00     0.00  -0.00  -0.12    -0.01  -0.00   0.38
    12   1     0.11  -0.01  -0.00     0.00   0.00   0.13    -0.01  -0.01  -0.41
    13   1    -0.13   0.01   0.01     0.00  -0.00  -0.26    -0.01  -0.00   0.48
    14   7    -0.05   0.02  -0.01    -0.00   0.00   0.39    -0.00  -0.00  -0.02
    15   7     0.00   0.07  -0.00    -0.00   0.00  -0.27    -0.00  -0.00   0.05
    16   6    -0.02   0.16  -0.00    -0.00   0.00  -0.13     0.00  -0.00   0.03
    17   6    -0.10   0.14   0.00    -0.00   0.00  -0.03     0.00   0.00   0.01
    18   6     0.01   0.15   0.00    -0.00   0.00  -0.02     0.00  -0.00   0.01
    19   6    -0.12   0.07   0.00    -0.00   0.00   0.15     0.00   0.00  -0.03
    20   1    -0.16   0.19   0.00    -0.00   0.00  -0.07     0.01  -0.00   0.02
    21   6     0.00   0.07   0.00    -0.00  -0.00   0.10     0.00  -0.00  -0.02
    22   1     0.05   0.17   0.00     0.00   0.00  -0.08     0.00  -0.00   0.01
    23   6    -0.08   0.03   0.00    -0.00  -0.00   0.08     0.01  -0.00  -0.02
    24   1    -0.16   0.05   0.00    -0.00  -0.00   0.23     0.00  -0.00  -0.04
    25   1     0.06   0.03   0.00     0.00  -0.00   0.11     0.00  -0.00  -0.03
    26   7    -0.10  -0.11  -0.00     0.01  -0.00  -0.11     0.00  -0.00   0.02
    27   1    -0.21  -0.16  -0.00    -0.05   0.00  -0.20     0.01  -0.00   0.03
    28   1    -0.00  -0.18  -0.01    -0.04  -0.00  -0.23     0.01  -0.00   0.04
    29   8    -0.01  -0.15   0.00     0.00  -0.00  -0.06    -0.01   0.00  -0.14
    30   8    -0.21  -0.17  -0.00    -0.00  -0.00   0.00    -0.01  -0.00  -0.24
    31   1    -0.22  -0.28  -0.00    -0.00  -0.00  -0.05    -0.01  -0.01  -0.25
    32  16    -0.01   0.01  -0.00    -0.00   0.00   0.00     0.00  -0.00  -0.08
    33   8     0.02  -0.01   0.00    -0.01   0.00   0.00     0.24  -0.05  -0.02
    34   8    -0.07  -0.01  -0.00    -0.00   0.00   0.00    -0.00  -0.00  -0.07
    35   8     0.02  -0.01  -0.00     0.01  -0.00   0.00    -0.23   0.04  -0.03
    36  16     0.14   0.06   0.00     0.00   0.00  -0.07     0.00   0.00  -0.04
    37   8     0.19   0.24  -0.03    -0.05  -0.18  -0.04    -0.03  -0.10  -0.02
    38   8    -0.03  -0.11   0.00    -0.00  -0.00  -0.00     0.01   0.01  -0.03
    39   8     0.19   0.24   0.03     0.05   0.18  -0.04     0.04   0.10  -0.02
    40   1    -0.04  -0.15   0.00    -0.00  -0.00  -0.33    -0.01  -0.00  -0.07
                     19                     20                     21
                      A                      A                      A
 Frequencies --    271.2776               300.4061               327.0437
 Red. masses --     10.6028                12.0914                 7.8672
 Frc consts  --      0.4597                 0.6429                 0.4958
 IR Inten    --     61.3387                 0.9790                 0.2711
  Atom  AN      X      Y      Z        X      Y      Z        X      Y      Z
     1   6    -0.11   0.01  -0.00    -0.06  -0.01  -0.00    -0.00   0.00   0.18
     2   6    -0.14   0.01  -0.00    -0.14   0.08  -0.00    -0.00   0.00   0.27
     3   6    -0.14  -0.05  -0.01    -0.12   0.17  -0.00    -0.00   0.00   0.35
     4   6    -0.09  -0.02  -0.00    -0.11   0.17  -0.00    -0.00  -0.00   0.00
     5   6    -0.10   0.02  -0.00    -0.02   0.11   0.00     0.00  -0.00  -0.14
     6   6    -0.10   0.07  -0.00    -0.00  -0.02  -0.00    -0.00   0.00   0.05
     7   6    -0.14  -0.08  -0.01    -0.03   0.13  -0.00    -0.00  -0.00   0.07
     8   6    -0.07  -0.03   0.01    -0.11   0.09   0.00     0.00  -0.00  -0.21
     9   1    -0.16  -0.01  -0.00     0.10   0.16   0.00     0.00  -0.00  -0.37
    10   6    -0.01  -0.05   0.00    -0.01  -0.00  -0.00     0.00  -0.00  -0.10
    11   6    -0.11  -0.06  -0.02    -0.02   0.04  -0.01     0.00  -0.00  -0.19
    12   1    -0.12  -0.06   0.02    -0.22   0.03  -0.00    -0.00  -0.00  -0.34
    13   1    -0.16  -0.03  -0.02     0.01   0.02  -0.01     0.00  -0.00  -0.41
    14   7    -0.08  -0.05   0.00    -0.05  -0.04  -0.00    -0.00  -0.00  -0.30
    15   7    -0.03  -0.04   0.00    -0.02  -0.02  -0.00    -0.00  -0.00   0.11
    16   6     0.03   0.00  -0.00     0.01   0.04   0.00    -0.00   0.00  -0.05
    17   6     0.09   0.02  -0.00     0.03   0.05  -0.00    -0.00   0.00   0.01
    18   6     0.08  -0.02  -0.00     0.04   0.03   0.00     0.00   0.00  -0.02
    19   6     0.10   0.01  -0.00     0.03   0.03  -0.00     0.00   0.00   0.01
    20   1     0.11  -0.00  -0.00     0.03   0.04  -0.00     0.00   0.00   0.06
    21   6     0.10  -0.03  -0.00     0.05   0.01   0.00     0.00  -0.00   0.05
    22   1     0.11  -0.01  -0.00     0.07   0.04   0.00     0.00   0.00   0.02
    23   6     0.13  -0.01  -0.00     0.06   0.01  -0.00     0.00  -0.00   0.01
    24   1     0.07  -0.00  -0.00     0.01   0.02  -0.00     0.00   0.00   0.03
    25   1     0.08  -0.01  -0.00     0.05   0.02  -0.00     0.00  -0.00   0.13
    26   7     0.15  -0.04   0.01     0.06  -0.06   0.00     0.00  -0.00  -0.01
    27   1     0.11  -0.04  -0.04    -0.00  -0.09   0.00    -0.01   0.00  -0.04
    28   1     0.15  -0.06  -0.05     0.10  -0.10  -0.02    -0.01  -0.00  -0.04
    29   8    -0.21  -0.02   0.00    -0.23   0.04   0.00    -0.00  -0.00  -0.20
    30   8    -0.26  -0.14   0.01     0.01   0.17   0.00     0.00  -0.00  -0.05
    31   1    -0.26  -0.23   0.01     0.01   0.20   0.00     0.00  -0.00  -0.05
    32  16     0.12  -0.03   0.00     0.06  -0.11   0.00     0.00   0.00   0.05
    33   8     0.11  -0.03   0.01    -0.07  -0.09  -0.03    -0.16   0.05   0.02
    34   8     0.26  -0.01   0.00     0.45  -0.03  -0.00     0.00   0.00   0.10
    35   8     0.13  -0.03  -0.00    -0.09  -0.08   0.04     0.15  -0.05   0.02
    36  16    -0.02   0.13   0.00     0.05  -0.10   0.00     0.00  -0.00   0.01
    37   8    -0.04   0.00   0.01     0.12   0.07  -0.04     0.01   0.02   0.01
    38   8     0.21   0.36   0.00    -0.21  -0.36  -0.00    -0.00  -0.00  -0.01
    39   8    -0.05  -0.00  -0.01     0.12   0.07   0.04    -0.01  -0.02   0.01
    40   1    -0.23  -0.13   0.00    -0.25  -0.09   0.00    -0.00   0.00   0.02
                     22                     23                     24
                      A                      A                      A
 Frequencies --    343.5995               343.6746               366.7475
 Red. masses --      8.3225                 7.3163                 3.0471
 Frc consts  --      0.5789                 0.5091                 0.2415
 IR Inten    --      8.6021                 2.7181                 9.6135
  Atom  AN      X      Y      Z        X      Y      Z        X      Y      Z
     1   6    -0.10   0.01   0.04     0.07  -0.01   0.06    -0.01   0.07  -0.00
     2   6    -0.12   0.03  -0.01     0.08  -0.02  -0.01     0.02   0.04   0.00
     3   6    -0.10  -0.01  -0.09     0.07   0.00  -0.12     0.00  -0.02   0.00
     4   6    -0.10  -0.01  -0.01     0.07   0.01  -0.02    -0.01  -0.02   0.00
     5   6    -0.10   0.00   0.26     0.07  -0.00   0.34    -0.04   0.00  -0.00
     6   6    -0.08   0.02   0.11     0.06  -0.01   0.14    -0.03   0.03  -0.00
     7   6    -0.01  -0.08  -0.06     0.01   0.05  -0.08    -0.03  -0.02   0.00
     8   6    -0.10  -0.10  -0.18     0.06   0.06  -0.25    -0.01  -0.01  -0.00
     9   1    -0.12  -0.00   0.39     0.08   0.00   0.51    -0.07  -0.01  -0.00
    10   6    -0.03  -0.12  -0.07     0.02   0.08  -0.09    -0.02   0.00  -0.00
    11   6    -0.03  -0.16   0.02     0.02   0.11   0.02    -0.03   0.01  -0.00
    12   1    -0.17  -0.13  -0.23     0.11   0.09  -0.32     0.00  -0.00  -0.00
    13   1    -0.02  -0.16   0.16     0.02   0.11   0.21    -0.03   0.01  -0.00
    14   7    -0.09  -0.02   0.02     0.06   0.01   0.03     0.01   0.13   0.00
    15   7    -0.05  -0.01   0.01     0.03   0.01   0.01     0.00   0.12  -0.00
    16   6    -0.01  -0.01  -0.02     0.01   0.01  -0.03    -0.00  -0.01   0.00
    17   6     0.03   0.00  -0.01    -0.02  -0.00  -0.02    -0.03  -0.04   0.01
    18   6     0.02  -0.03  -0.02    -0.02   0.02  -0.02     0.04  -0.05  -0.01
    19   6     0.05   0.00   0.01    -0.03  -0.00   0.02    -0.01  -0.11   0.01
    20   1     0.06  -0.02  -0.01    -0.04   0.01  -0.02    -0.06  -0.02   0.03
    21   6     0.04  -0.03   0.02    -0.03   0.02   0.03     0.01  -0.12  -0.00
    22   1     0.05  -0.02  -0.03    -0.04   0.01  -0.03     0.09  -0.03  -0.02
    23   6     0.07  -0.01   0.02    -0.05   0.01   0.02     0.01  -0.11  -0.00
    24   1     0.03  -0.01   0.02    -0.02   0.00   0.02    -0.06  -0.14   0.03
    25   1     0.01  -0.01   0.03    -0.01   0.01   0.04     0.05  -0.15  -0.02
    26   7     0.09  -0.00  -0.00    -0.06   0.00  -0.01     0.03   0.17  -0.01
    27   1     0.08   0.01  -0.07    -0.07   0.00  -0.04     0.34   0.38  -0.24
    28   1     0.06   0.01  -0.05    -0.06  -0.00  -0.02    -0.18   0.45   0.40
    29   8    -0.06   0.07   0.01     0.04  -0.05   0.01     0.06   0.07   0.00
    30   8     0.21   0.01   0.03    -0.14  -0.01   0.04    -0.12  -0.06  -0.00
    31   1     0.21   0.20   0.04    -0.14  -0.13   0.05    -0.12  -0.13   0.00
    32  16     0.01   0.06   0.02    -0.01  -0.04   0.03     0.01  -0.00   0.00
    33   8     0.06   0.13   0.07    -0.19  -0.03  -0.03     0.01  -0.01  -0.00
    34   8    -0.20   0.02   0.06     0.14  -0.01   0.06     0.03   0.00  -0.00
    35   8     0.22   0.06  -0.06    -0.00  -0.09   0.06     0.01  -0.01   0.00
    36  16     0.03  -0.01  -0.04    -0.02   0.01  -0.05     0.01  -0.02   0.00
    37   8     0.07  -0.07  -0.06    -0.10  -0.19  -0.00     0.04  -0.00  -0.02
    38   8    -0.05  -0.09  -0.08     0.03   0.06  -0.10    -0.04  -0.07   0.00
    39   8     0.12   0.17   0.02    -0.03   0.13  -0.05     0.04  -0.00   0.02
    40   1    -0.05   0.08   0.03     0.03  -0.05   0.03     0.07   0.14  -0.00
                     25                     26                     27
                      A                      A                      A
 Frequencies --    378.5181               385.4774               410.4632
 Red. masses --      4.1132                 1.1726                 1.5257
 Frc consts  --      0.3472                 0.1027                 0.1515
 IR Inten    --     74.0011                37.7473              1016.5681
  Atom  AN      X      Y      Z        X      Y      Z        X      Y      Z
     1   6    -0.00   0.00   0.15    -0.00  -0.02  -0.01     0.00  -0.01   0.06
     2   6     0.00  -0.00   0.02    -0.01  -0.01  -0.00    -0.01  -0.00   0.02
     3   6     0.00  -0.00  -0.14    -0.00   0.01   0.01    -0.01   0.01  -0.04
     4   6     0.00  -0.00  -0.05     0.00   0.01   0.00    -0.01   0.00  -0.02
     5   6     0.00   0.00  -0.04     0.01  -0.00   0.00    -0.00  -0.00  -0.01
     6   6     0.00   0.00   0.06     0.01  -0.01  -0.00     0.00  -0.01   0.03
     7   6     0.00   0.00  -0.06     0.01   0.00   0.00    -0.00   0.00  -0.02
     8   6     0.00   0.00   0.11     0.00   0.00  -0.01    -0.01  -0.00   0.03
     9   1     0.00   0.00  -0.08     0.02   0.00   0.00     0.01   0.00  -0.03
    10   6     0.00   0.00   0.07     0.00  -0.00  -0.00    -0.00  -0.00   0.02
    11   6     0.00   0.00   0.05     0.01  -0.00  -0.00    -0.00  -0.01   0.01
    12   1     0.01   0.00   0.19    -0.00   0.00  -0.01    -0.02  -0.00   0.05
    13   1     0.00   0.00   0.13     0.01  -0.00  -0.01     0.00  -0.01   0.04
    14   7    -0.00  -0.00  -0.10    -0.00  -0.03   0.01     0.01  -0.00  -0.03
    15   7    -0.01  -0.00   0.22     0.00  -0.02  -0.01     0.02   0.00   0.01
    16   6    -0.00   0.00  -0.18     0.00   0.01   0.01     0.01   0.01  -0.05
    17   6    -0.00   0.00  -0.09     0.00   0.01   0.02     0.01   0.00   0.01
    18   6    -0.00   0.00  -0.19    -0.00   0.02  -0.01     0.02   0.01  -0.00
    19   6    -0.00   0.01   0.05    -0.00   0.01   0.01    -0.00  -0.02   0.02
    20   1    -0.00   0.00  -0.05     0.00   0.02   0.06    -0.01   0.01   0.05
    21   6    -0.00  -0.01   0.16     0.00   0.02  -0.01     0.01   0.01   0.04
    22   1    -0.00   0.00  -0.25    -0.00   0.02  -0.06     0.02   0.01   0.04
    23   6    -0.01   0.00   0.12    -0.00   0.01  -0.00     0.01  -0.01  -0.01
    24   1    -0.00   0.01   0.07     0.00   0.02   0.05    -0.01  -0.02   0.05
    25   1    -0.00  -0.01   0.29     0.00   0.02  -0.07     0.02  -0.00   0.11
    26   7     0.03  -0.01  -0.02    -0.02  -0.06  -0.01    -0.07   0.02  -0.13
    27   1    -0.12   0.08  -0.58     0.01   0.13  -0.60     0.19  -0.11   0.75
    28   1    -0.13   0.01  -0.31     0.04   0.15   0.75     0.17   0.06   0.53
    29   8     0.00   0.00  -0.02    -0.02  -0.03   0.00    -0.02  -0.02  -0.00
    30   8    -0.00   0.00   0.02     0.03   0.02  -0.00     0.02   0.01   0.01
    31   1    -0.00  -0.00   0.01     0.03   0.04  -0.00     0.02   0.03  -0.01
    32  16    -0.00  -0.00  -0.01    -0.00   0.00   0.00     0.00  -0.00  -0.00
    33   8     0.05  -0.03  -0.01    -0.01   0.00   0.00     0.02  -0.01   0.00
    34   8    -0.00  -0.00  -0.06    -0.00  -0.00   0.00    -0.00  -0.00  -0.02
    35   8    -0.05   0.03  -0.01    -0.00   0.00   0.00    -0.01   0.01  -0.00
    36  16    -0.00   0.00   0.00    -0.00   0.00   0.00     0.00  -0.00   0.00
    37   8     0.00  -0.02   0.00    -0.01   0.01   0.01    -0.00  -0.01   0.00
    38   8    -0.00  -0.00  -0.03     0.01   0.02   0.00     0.01   0.01  -0.02
    39   8    -0.00   0.02   0.00    -0.01   0.00  -0.01    -0.01   0.02  -0.00
    40   1     0.01   0.00   0.22    -0.03  -0.05  -0.01    -0.03  -0.04   0.03
                     28                     29                     30
                      A                      A                      A
 Frequencies --    422.0895               435.6212               453.0321
 Red. masses --      3.6694                 3.2637                 7.0982
 Frc consts  --      0.3852                 0.3649                 0.8583
 IR Inten    --     15.5647                 4.4189                31.0740
  Atom  AN      X      Y      Z        X      Y      Z        X      Y      Z
     1   6     0.01   0.09   0.02    -0.00   0.00   0.08    -0.15  -0.11   0.04
     2   6     0.03   0.07   0.01     0.00  -0.00   0.04    -0.01  -0.20   0.02
     3   6     0.00  -0.02  -0.01     0.00  -0.00  -0.05    -0.05  -0.08  -0.02
     4   6    -0.01  -0.02  -0.01     0.00  -0.00  -0.03    -0.01  -0.05  -0.02
     5   6    -0.04   0.01  -0.00     0.00   0.00  -0.02    -0.06  -0.03  -0.01
     6   6    -0.03   0.06   0.01    -0.00   0.00   0.06    -0.08  -0.05   0.04
     7   6    -0.03  -0.02  -0.01    -0.00  -0.00  -0.04    -0.15   0.06  -0.02
     8   6    -0.01  -0.02   0.01     0.00   0.00   0.03    -0.00   0.05   0.01
     9   1    -0.07  -0.01  -0.01    -0.00  -0.00  -0.05    -0.09  -0.05  -0.03
    10   6    -0.02  -0.00   0.01     0.00   0.00   0.04    -0.07   0.10   0.02
    11   6    -0.03  -0.00   0.00    -0.00   0.00   0.01    -0.16   0.07   0.00
    12   1     0.00  -0.01   0.01     0.00   0.00   0.06     0.08   0.09   0.03
    13   1    -0.03   0.00   0.01    -0.00   0.00   0.04    -0.22   0.11   0.01
    14   7     0.01   0.03  -0.01    -0.00  -0.00  -0.08    -0.18  -0.07  -0.03
    15   7    -0.02  -0.01  -0.00    -0.00  -0.00   0.01    -0.05  -0.02  -0.04
    16   6    -0.02  -0.11  -0.01    -0.00   0.00  -0.01    -0.03   0.02   0.01
    17   6     0.06  -0.08   0.01     0.00   0.00  -0.20    -0.00   0.03   0.05
    18   6    -0.07  -0.08  -0.01    -0.00  -0.00   0.22     0.00  -0.01   0.01
    19   6     0.07   0.10   0.00     0.00   0.00   0.20     0.01   0.00  -0.03
    20   1     0.18  -0.17   0.05     0.00   0.00  -0.44     0.01   0.02   0.11
    21   6    -0.04   0.11   0.01    -0.00   0.00  -0.21     0.01  -0.04   0.00
    22   1    -0.18  -0.13  -0.01    -0.00  -0.00   0.49     0.04   0.01   0.03
    23   6     0.03   0.13  -0.01    -0.00   0.00  -0.01     0.05  -0.03  -0.04
    24   1     0.18   0.15   0.03     0.00   0.00   0.43    -0.04  -0.02  -0.03
    25   1    -0.16   0.19   0.01    -0.00   0.00  -0.39     0.00  -0.03   0.03
    26   7    -0.02  -0.16  -0.04     0.01  -0.01   0.01     0.06   0.01   0.02
    27   1    -0.20  -0.26   0.05    -0.01   0.03  -0.13     0.10   0.02   0.02
    28   1     0.31  -0.26   0.37    -0.01   0.01   0.02     0.04   0.02   0.01
    29   8     0.13   0.16  -0.00     0.00   0.00  -0.01     0.36  -0.04  -0.00
    30   8    -0.12  -0.07   0.00    -0.00  -0.00   0.01     0.09   0.20   0.01
    31   1    -0.12  -0.13  -0.00    -0.00  -0.00  -0.01     0.10   0.35  -0.02
    32  16     0.00  -0.00   0.00    -0.00   0.00   0.00    -0.00   0.03   0.00
    33   8     0.02  -0.01   0.00     0.01  -0.02   0.00     0.03  -0.10  -0.05
    34   8     0.01   0.00  -0.01    -0.00  -0.00  -0.03     0.10   0.05  -0.03
    35   8     0.01  -0.00  -0.00    -0.01   0.02  -0.00     0.02  -0.07   0.06
    36  16    -0.00  -0.01   0.00    -0.00   0.00   0.00    -0.01   0.00   0.01
    37   8     0.04  -0.03  -0.03     0.01  -0.02  -0.00     0.02   0.03  -0.01
    38   8    -0.05  -0.05  -0.01    -0.00  -0.00  -0.03     0.04   0.05  -0.02
    39   8     0.04  -0.02   0.03    -0.01   0.02  -0.00     0.01   0.06   0.01
    40   1     0.17   0.28   0.00     0.00   0.01   0.03     0.43   0.32  -0.02
                     31                     32                     33
                      A                      A                      A
 Frequencies --    455.4425               482.3925               501.6347
 Red. masses --      6.5774                 7.9713                12.3597
 Frc consts  --      0.8038                 1.0929                 1.8325
 IR Inten    --     36.8187                30.0075                11.8918
  Atom  AN      X      Y      Z        X      Y      Z        X      Y      Z
     1   6     0.02   0.02   0.20     0.15  -0.04   0.01     0.00   0.00   0.06
     2   6     0.00   0.03   0.12     0.03   0.03   0.01     0.00   0.00  -0.06
     3   6     0.01   0.01  -0.10    -0.05   0.06  -0.00     0.00   0.00  -0.10
     4   6     0.01   0.01  -0.11    -0.11   0.01  -0.01    -0.00  -0.00   0.02
     5   6     0.01   0.01  -0.06     0.02  -0.06  -0.00     0.00  -0.00  -0.13
     6   6     0.01   0.02   0.20     0.05  -0.08   0.02     0.00   0.00   0.10
     7   6     0.04  -0.02  -0.10    -0.15   0.12  -0.01    -0.00   0.00   0.07
     8   6     0.01  -0.00   0.06    -0.16  -0.13   0.00    -0.00  -0.00   0.20
     9   1     0.01   0.01  -0.16     0.12  -0.02  -0.01     0.00  -0.00  -0.26
    10   6     0.02  -0.01   0.12    -0.15  -0.14   0.01    -0.00  -0.00  -0.15
    11   6     0.04  -0.00   0.00    -0.17  -0.10  -0.00    -0.00  -0.00   0.15
    12   1     0.01  -0.00   0.14    -0.25  -0.17   0.00    -0.00  -0.00   0.33
    13   1     0.04  -0.01   0.07    -0.05  -0.18  -0.01     0.00  -0.00   0.19
    14   7     0.01   0.01  -0.15     0.19  -0.05  -0.01     0.00  -0.00  -0.05
    15   7    -0.01   0.00  -0.23     0.21  -0.04  -0.02     0.00  -0.00  -0.03
    16   6    -0.01   0.00   0.06     0.16   0.00   0.02     0.00   0.00  -0.04
    17   6    -0.01   0.01   0.27     0.01  -0.05   0.01    -0.00   0.00   0.04
    18   6    -0.01   0.00   0.09     0.04   0.09   0.00    -0.00   0.00   0.04
    19   6    -0.00   0.01  -0.17    -0.03  -0.08  -0.02    -0.00   0.00  -0.01
    20   1    -0.01   0.00   0.54    -0.10   0.03   0.00    -0.00   0.00   0.14
    21   6    -0.00  -0.01  -0.02    -0.00   0.07  -0.01    -0.00  -0.00  -0.01
    22   1    -0.00   0.00   0.14    -0.05   0.05  -0.01    -0.00   0.00   0.13
    23   6    -0.01  -0.00  -0.18    -0.16   0.00   0.00    -0.00  -0.00  -0.07
    24   1    -0.01   0.01  -0.18     0.07  -0.03  -0.04    -0.00   0.00   0.07
    25   1    -0.00  -0.01   0.12     0.11  -0.01  -0.03     0.00  -0.00   0.07
    26   7     0.03  -0.00   0.14    -0.18   0.02   0.04     0.00  -0.00   0.03
    27   1    -0.04   0.07  -0.23    -0.24   0.06  -0.18    -0.00   0.01  -0.03
    28   1    -0.06  -0.02  -0.15    -0.28   0.01  -0.20    -0.01  -0.00  -0.01
    29   8    -0.07   0.00  -0.00     0.10   0.06   0.00    -0.00   0.00   0.03
    30   8    -0.01  -0.04   0.04    -0.10   0.18   0.00    -0.00   0.00  -0.04
    31   1    -0.01  -0.07  -0.12    -0.10   0.18  -0.01    -0.00   0.00   0.04
    32  16     0.00  -0.00   0.03    -0.03  -0.06   0.01    -0.00  -0.00  -0.23
    33   8     0.02  -0.05   0.01     0.10   0.08   0.12     0.03   0.30  -0.10
    34   8    -0.02  -0.02  -0.11     0.06  -0.05  -0.00     0.00   0.04   0.50
    35   8    -0.04   0.08  -0.01     0.10   0.08  -0.13    -0.02  -0.34  -0.03
    36  16     0.00   0.00   0.03     0.01  -0.02   0.01     0.00   0.00   0.08
    37   8     0.04  -0.09   0.01    -0.02   0.02   0.03     0.09  -0.06   0.02
    38   8    -0.01  -0.01  -0.13     0.05   0.01  -0.02     0.00  -0.00  -0.18
    39   8    -0.05   0.07   0.00    -0.03   0.04  -0.03    -0.10   0.06   0.02
    40   1    -0.08  -0.06  -0.12     0.10   0.06  -0.01    -0.00  -0.00   0.05
                     34                     35                     36
                      A                      A                      A
 Frequencies --    505.9633               508.5753               509.0641
 Red. masses --     11.7031                 9.1782                11.2771
 Frc consts  --      1.7652                 1.3987                 1.7218
 IR Inten    --     26.3450                35.7325                70.8871
  Atom  AN      X      Y      Z        X      Y      Z        X      Y      Z
     1   6     0.00   0.04  -0.00    -0.02  -0.01   0.20     0.08   0.02   0.10
     2   6    -0.15   0.15  -0.00     0.02  -0.04   0.12    -0.04   0.11   0.06
     3   6    -0.15  -0.05   0.00     0.02   0.02  -0.13    -0.06  -0.04  -0.06
     4   6     0.03   0.02  -0.00     0.01   0.03   0.04    -0.02  -0.06   0.02
     5   6     0.15  -0.02   0.00     0.00   0.04   0.07     0.01  -0.10   0.04
     6   6     0.16   0.02   0.00     0.00  -0.01  -0.09     0.02   0.02  -0.04
     7   6    -0.11  -0.18   0.00     0.01   0.04  -0.13    -0.03  -0.09  -0.07
     8   6     0.03   0.03  -0.00     0.00  -0.02   0.02    -0.00   0.03   0.01
     9   1     0.18  -0.01   0.00     0.02   0.05   0.06    -0.03  -0.11   0.03
    10   6     0.03   0.02   0.00    -0.00  -0.03  -0.03    -0.01   0.05  -0.01
    11   6    -0.12  -0.10  -0.00     0.01  -0.00   0.07    -0.04  -0.01   0.04
    12   1     0.00   0.02  -0.00    -0.02  -0.03   0.03     0.04   0.05   0.02
    13   1    -0.27   0.00  -0.00     0.05  -0.03   0.30    -0.13   0.05   0.15
    14   7    -0.02  -0.10   0.00    -0.03   0.06  -0.04     0.09  -0.17  -0.02
    15   7     0.04  -0.07  -0.00    -0.05   0.05  -0.03     0.13  -0.15  -0.02
    16   6     0.04   0.04   0.00    -0.05  -0.02  -0.11     0.13   0.06  -0.05
    17   6     0.00   0.03  -0.00    -0.01  -0.01   0.08     0.01   0.04   0.04
    18   6     0.02   0.07  -0.00    -0.02  -0.05   0.07     0.06   0.14   0.03
    19   6    -0.01  -0.04  -0.00     0.01   0.03  -0.01    -0.03  -0.08  -0.01
    20   1    -0.06   0.08  -0.00     0.04  -0.04   0.33    -0.12   0.14   0.16
    21   6     0.01  -0.01  -0.00    -0.01  -0.01  -0.01     0.02   0.03  -0.01
    22   1     0.03   0.07  -0.00    -0.02  -0.04   0.32     0.06   0.13   0.15
    23   6    -0.03  -0.03   0.00     0.04   0.01  -0.15    -0.12  -0.04  -0.07
    24   1    -0.03  -0.05  -0.00     0.00   0.03   0.22    -0.02  -0.07   0.09
    25   1     0.08  -0.05   0.00    -0.06   0.02   0.22     0.16  -0.07   0.10
    26   7    -0.04   0.02  -0.00     0.06  -0.01   0.06    -0.13   0.03   0.04
    27   1     0.01   0.04   0.01     0.03   0.00  -0.05    -0.09   0.08  -0.05
    28   1    -0.08   0.04  -0.02     0.07  -0.03   0.01    -0.22   0.06  -0.07
    29   8     0.01   0.32  -0.00     0.02  -0.05  -0.03    -0.05   0.14  -0.02
    30   8     0.08  -0.15   0.00    -0.04   0.03   0.03     0.08  -0.06   0.02
    31   1     0.08   0.04   0.00    -0.04  -0.03  -0.09     0.08   0.07  -0.05
    32  16     0.02   0.10   0.00    -0.00  -0.05  -0.05     0.00   0.11  -0.02
    33   8    -0.02  -0.14  -0.13     0.01   0.12   0.04     0.00  -0.12  -0.14
    34   8    -0.02   0.10  -0.02     0.00  -0.04   0.10     0.00   0.12   0.03
    35   8    -0.02  -0.11   0.15    -0.01  -0.01  -0.07     0.00  -0.15   0.15
    36  16     0.16  -0.05   0.00     0.06  -0.03  -0.17    -0.14   0.08  -0.08
    37   8    -0.21   0.07   0.25    -0.27   0.17   0.04     0.07  -0.07  -0.24
    38   8     0.10  -0.14  -0.00     0.05  -0.04   0.37    -0.14   0.10   0.18
    39   8    -0.21   0.07  -0.26     0.14  -0.07  -0.13     0.27  -0.18   0.19
    40   1     0.05   0.34  -0.00     0.02   0.01  -0.02    -0.04   0.01  -0.01
                     37                     38                     39
                      A                      A                      A
 Frequencies --    523.2343               548.8407               562.2868
 Red. masses --      8.5241                 2.6074                 8.1666
 Frc consts  --      1.3750                 0.4628                 1.5213
 IR Inten    --     23.2745                90.8243                43.6635
  Atom  AN      X      Y      Z        X      Y      Z        X      Y      Z
     1   6     0.07   0.01   0.01    -0.01  -0.00   0.06    -0.03  -0.05  -0.00
     2   6     0.04  -0.02   0.01    -0.01  -0.00   0.08    -0.06  -0.01  -0.01
     3   6     0.01  -0.01  -0.01    -0.00  -0.00  -0.03    -0.08  -0.05   0.00
     4   6    -0.05  -0.07  -0.00    -0.01   0.00  -0.03    -0.18  -0.02   0.00
     5   6    -0.07  -0.08   0.00    -0.01   0.00  -0.00    -0.12  -0.10   0.00
     6   6    -0.05  -0.06   0.00    -0.01  -0.00   0.05    -0.11  -0.11  -0.00
     7   6    -0.05   0.02  -0.01     0.01  -0.01  -0.06     0.09  -0.16   0.01
     8   6    -0.06  -0.08   0.00    -0.00   0.02   0.02    -0.17   0.31  -0.00
     9   1    -0.07  -0.08  -0.00    -0.01   0.00  -0.03    -0.08  -0.08   0.00
    10   6    -0.08  -0.03   0.00     0.00   0.01   0.03    -0.00   0.22  -0.01
    11   6    -0.07  -0.05   0.00     0.01   0.01   0.02     0.11   0.21  -0.00
    12   1    -0.04  -0.07   0.00    -0.00   0.02   0.04    -0.08   0.35  -0.00
    13   1    -0.05  -0.07   0.01    -0.00   0.02   0.09    -0.09   0.34  -0.01
    14   7     0.16   0.30  -0.01    -0.01  -0.00  -0.07     0.03   0.04   0.01
    15   7     0.04   0.24  -0.01     0.00  -0.00  -0.08     0.10   0.06   0.01
    16   6     0.01  -0.12   0.02     0.00  -0.00   0.22     0.10  -0.05  -0.03
    17   6     0.01  -0.16   0.00     0.01  -0.00  -0.03     0.04  -0.10   0.01
    18   6    -0.02  -0.13   0.00     0.01  -0.00  -0.04     0.04  -0.01   0.01
    19   6     0.04   0.03  -0.01     0.00  -0.00  -0.03     0.03  -0.05  -0.00
    20   1     0.11  -0.23  -0.01     0.00   0.00  -0.41     0.02  -0.09   0.07
    21   6    -0.02   0.07  -0.01     0.00   0.00  -0.02     0.02   0.06  -0.00
    22   1    -0.15  -0.19  -0.03     0.00   0.00  -0.45    -0.05  -0.05   0.08
    23   6    -0.01   0.09   0.01     0.00  -0.00   0.21    -0.07   0.03  -0.03
    24   1     0.18   0.09  -0.03     0.00  -0.00  -0.47     0.14   0.01   0.07
    25   1    -0.11   0.13  -0.04     0.00   0.01  -0.45     0.06   0.04   0.07
    26   7    -0.03  -0.03   0.02    -0.01   0.00  -0.06    -0.10   0.00   0.03
    27   1    -0.18  -0.05  -0.13    -0.01  -0.02   0.04    -0.17   0.01  -0.11
    28   1     0.03  -0.10  -0.08    -0.01   0.02  -0.00    -0.11  -0.02  -0.09
    29   8    -0.15  -0.19  -0.00     0.01   0.00  -0.01     0.03   0.02   0.00
    30   8     0.08   0.09   0.00     0.01  -0.01   0.03     0.15  -0.22  -0.00
    31   1     0.08   0.20  -0.02     0.01  -0.01  -0.21     0.16  -0.12   0.05
    32  16    -0.01   0.13  -0.00     0.00  -0.01  -0.02    -0.02  -0.06   0.00
    33   8     0.04  -0.17  -0.14     0.01   0.03  -0.00    -0.00   0.05   0.07
    34   8     0.02   0.16  -0.02     0.00  -0.00   0.03     0.06  -0.05   0.00
    35   8     0.05  -0.15   0.16    -0.01  -0.02  -0.01    -0.01   0.04  -0.07
    36  16     0.02  -0.04  -0.01    -0.00  -0.00  -0.02    -0.03  -0.10   0.00
    37   8    -0.02   0.06   0.02    -0.03   0.01  -0.01     0.01   0.11  -0.02
    38   8     0.06   0.01   0.01     0.00   0.00   0.04     0.12   0.04  -0.00
    39   8    -0.00   0.05  -0.02     0.03  -0.00  -0.01     0.00   0.11   0.02
    40   1    -0.22  -0.28  -0.01     0.01   0.01  -0.08     0.02   0.07   0.01
                     40                     41                     42
                      A                      A                      A
 Frequencies --    574.7088               578.5359               604.3224
 Red. masses --      1.1570                 6.7940                10.0284
 Frc consts  --      0.2252                 1.3398                 2.1578
 IR Inten    --    160.5056                27.7582               367.1963
  Atom  AN      X      Y      Z        X      Y      Z        X      Y      Z
     1   6    -0.00   0.00   0.02    -0.04  -0.02   0.00    -0.13  -0.06   0.00
     2   6    -0.00  -0.00  -0.01     0.08  -0.03   0.00    -0.09  -0.13  -0.01
     3   6    -0.00  -0.00  -0.02     0.10   0.13  -0.00    -0.11   0.02  -0.00
     4   6     0.00   0.00  -0.00    -0.11   0.10   0.00     0.04   0.18  -0.00
     5   6     0.00   0.00  -0.01    -0.18   0.16  -0.00    -0.02   0.25  -0.00
     6   6     0.00   0.00   0.04    -0.16  -0.01  -0.00    -0.04   0.04   0.01
     7   6    -0.00   0.00   0.03     0.20   0.10  -0.00    -0.10  -0.05   0.01
     8   6     0.00  -0.00   0.01    -0.12  -0.08   0.00     0.06   0.05   0.00
     9   1     0.00   0.00  -0.05    -0.11   0.20  -0.00     0.02   0.27  -0.01
    10   6     0.00  -0.00  -0.03    -0.00  -0.13   0.00     0.17  -0.04  -0.00
    11   6    -0.00  -0.00   0.00     0.21  -0.02  -0.00    -0.09  -0.14  -0.00
    12   1     0.00  -0.00   0.06    -0.26  -0.15  -0.01    -0.11  -0.03   0.01
    13   1    -0.00  -0.00   0.05     0.41  -0.16   0.00    -0.20  -0.07  -0.01
    14   7    -0.00  -0.00  -0.01    -0.04  -0.14   0.00    -0.05   0.05   0.00
    15   7    -0.00  -0.00  -0.02     0.02  -0.12   0.00     0.11   0.11   0.00
    16   6    -0.00   0.00   0.02     0.04   0.03  -0.00     0.15  -0.07  -0.01
    17   6     0.00   0.00   0.00     0.04   0.03   0.00     0.06  -0.17   0.00
    18   6     0.00  -0.00   0.00     0.01   0.07   0.00     0.11  -0.03   0.00
    19   6     0.00  -0.00  -0.01     0.02  -0.05  -0.00     0.05  -0.07  -0.01
    20   1     0.00   0.00  -0.03    -0.02   0.07   0.01     0.05  -0.16   0.03
    21   6     0.00  -0.00  -0.00     0.00  -0.00  -0.00     0.09   0.11  -0.00
    22   1     0.00   0.00  -0.04     0.02   0.08   0.01    -0.04  -0.09   0.03
    23   6     0.00  -0.00   0.02    -0.03  -0.03  -0.00    -0.11   0.05  -0.01
    24   1    -0.00  -0.00  -0.05     0.01  -0.05   0.01     0.25   0.01   0.02
    25   1    -0.00   0.00  -0.05     0.06  -0.05   0.01     0.15   0.06   0.02
    26   7    -0.00   0.00  -0.00    -0.04   0.00   0.00    -0.17   0.02   0.02
    27   1    -0.00  -0.00   0.00    -0.03   0.01  -0.01    -0.23   0.02  -0.09
    28   1    -0.00   0.00   0.00    -0.07   0.01  -0.02    -0.18  -0.01  -0.09
    29   8    -0.00  -0.00  -0.01     0.10  -0.02  -0.00     0.08  -0.11   0.00
    30   8    -0.00   0.00  -0.06    -0.15  -0.06  -0.00    -0.01  -0.00  -0.00
    31   1    -0.00   0.00   0.98    -0.15  -0.39   0.02    -0.01   0.02  -0.02
    32  16     0.00  -0.00   0.01     0.01   0.09  -0.00     0.26  -0.02  -0.00
    33   8    -0.01  -0.01   0.00     0.01  -0.08  -0.09    -0.15   0.07  -0.11
    34   8    -0.00  -0.00  -0.01    -0.05   0.10  -0.01    -0.17  -0.13   0.01
    35   8     0.00   0.01   0.00     0.02  -0.06   0.10    -0.15   0.08   0.10
    36  16     0.00   0.00  -0.01    -0.01  -0.10   0.00     0.00   0.04  -0.00
    37   8    -0.01  -0.00  -0.00    -0.01   0.10   0.01     0.01  -0.04  -0.01
    38   8    -0.00  -0.00   0.02     0.09  -0.01  -0.00    -0.06  -0.00   0.00
    39   8     0.01  -0.00  -0.00    -0.01   0.10  -0.01     0.01  -0.04   0.00
    40   1    -0.00   0.00   0.08     0.11  -0.01   0.00     0.08   0.05   0.00
                     43                     44                     45
                      A                      A                      A
 Frequencies --    607.7564               620.0422               633.1968
 Red. masses --      5.2492                14.3211                 4.8310
 Frc consts  --      1.1424                 3.2439                 1.1412
 IR Inten    --     43.6591               257.1967                 0.2106
  Atom  AN      X      Y      Z        X      Y      Z        X      Y      Z
     1   6     0.00   0.00  -0.02    -0.09   0.00  -0.00     0.00  -0.00  -0.05
     2   6     0.00   0.00  -0.19     0.03  -0.13  -0.00    -0.00  -0.00   0.14
     3   6     0.00   0.00   0.01     0.00   0.02   0.00    -0.00   0.00   0.06
     4   6    -0.00  -0.00  -0.22    -0.07   0.14  -0.00     0.00   0.00  -0.24
     5   6    -0.00  -0.00   0.01    -0.06   0.22  -0.00     0.00   0.00   0.12
     6   6    -0.00  -0.00   0.34    -0.02   0.17   0.00     0.00  -0.00  -0.11
     7   6     0.00   0.00   0.34     0.07  -0.08   0.00    -0.00  -0.00   0.00
     8   6    -0.00  -0.00   0.03    -0.14   0.08  -0.00    -0.00   0.00  -0.06
     9   1    -0.00  -0.00  -0.08    -0.07   0.22  -0.00     0.00   0.00   0.53
    10   6    -0.00  -0.00   0.02    -0.11   0.03   0.00     0.00   0.00   0.42
    11   6     0.00   0.00  -0.06     0.05   0.04  -0.00    -0.00  -0.00  -0.10
    12   1     0.00   0.00   0.25    -0.20   0.05  -0.01    -0.00  -0.00  -0.19
    13   1     0.01  -0.00  -0.63     0.04   0.04  -0.01    -0.00  -0.00  -0.43
    14   7     0.00  -0.00  -0.02    -0.04  -0.02   0.00     0.00   0.00   0.04
    15   7    -0.00  -0.00   0.01     0.04   0.01   0.00     0.00   0.00   0.01
    16   6    -0.00   0.00  -0.00     0.08  -0.02  -0.00    -0.00  -0.00  -0.01
    17   6    -0.00   0.00  -0.00     0.05  -0.07   0.00    -0.00  -0.00  -0.01
    18   6    -0.00   0.00   0.00     0.06   0.01   0.00     0.00  -0.00  -0.01
    19   6    -0.00   0.00   0.00     0.04  -0.05  -0.00    -0.00   0.00   0.01
    20   1    -0.00   0.00   0.00     0.02  -0.05   0.01    -0.00  -0.00   0.02
    21   6    -0.00  -0.00  -0.00     0.05   0.05  -0.00     0.00   0.00   0.01
    22   1     0.00   0.00   0.01    -0.01  -0.02   0.01    -0.00  -0.00   0.02
    23   6     0.00  -0.00  -0.00    -0.06   0.02  -0.00    -0.00   0.00  -0.02
    24   1    -0.00  -0.00   0.01     0.13  -0.01   0.01    -0.00   0.00   0.05
    25   1    -0.00  -0.00   0.01     0.10   0.01   0.01    -0.00   0.00   0.05
    26   7     0.00  -0.00   0.00    -0.10   0.01   0.00     0.00   0.00   0.00
    27   1     0.00  -0.00   0.00    -0.12   0.01  -0.01     0.00   0.00   0.00
    28   1     0.00  -0.00   0.00    -0.10   0.00  -0.02     0.00  -0.00   0.00
    29   8    -0.00   0.00   0.05     0.09  -0.23   0.00     0.00  -0.00  -0.05
    30   8    -0.00   0.00  -0.05     0.08  -0.18   0.00     0.00  -0.00  -0.01
    31   1    -0.00  -0.00  -0.42     0.09  -0.17   0.00    -0.00   0.00   0.41
    32  16    -0.00   0.00  -0.00    -0.21   0.02   0.00    -0.00  -0.00  -0.07
    33   8     0.01  -0.00  -0.00     0.12  -0.06   0.09     0.07   0.05  -0.03
    34   8     0.00   0.00   0.00     0.13   0.12  -0.01    -0.00   0.01   0.07
    35   8    -0.00  -0.00  -0.00     0.12  -0.07  -0.08    -0.06  -0.06  -0.02
    36  16    -0.00  -0.00  -0.08     0.17   0.29  -0.00    -0.00  -0.00   0.01
    37   8    -0.09  -0.01  -0.03    -0.02  -0.20   0.15     0.01   0.00   0.00
    38   8     0.00   0.00   0.09    -0.26  -0.11   0.00     0.00   0.00  -0.01
    39   8     0.09   0.01  -0.03    -0.01  -0.20  -0.15    -0.01  -0.00   0.00
    40   1    -0.00  -0.00   0.06     0.07  -0.15   0.00     0.00   0.00  -0.02
                     46                     47                     48
                      A                      A                      A
 Frequencies --    647.3534               650.3464               657.8745
 Red. masses --      4.3693                 6.0813                 6.9682
 Frc consts  --      1.0788                 1.5154                 1.7769
 IR Inten    --     38.4111                80.4345                62.5013
  Atom  AN      X      Y      Z        X      Y      Z        X      Y      Z
     1   6     0.01  -0.01  -0.07     0.07  -0.09   0.01    -0.10   0.03  -0.00
     2   6    -0.00  -0.01  -0.18    -0.03  -0.06   0.02    -0.03   0.03  -0.00
     3   6    -0.01   0.01   0.09    -0.08   0.09  -0.02     0.05  -0.04   0.00
     4   6    -0.00   0.03   0.24    -0.02   0.24  -0.03     0.13  -0.08   0.01
     5   6     0.02   0.01  -0.10     0.21   0.16   0.01    -0.06   0.03  -0.00
     6   6     0.02  -0.01   0.23     0.17  -0.09  -0.03    -0.07   0.07   0.01
     7   6    -0.00  -0.01  -0.21    -0.02  -0.07   0.03     0.02   0.04  -0.01
     8   6    -0.01   0.01  -0.10    -0.09   0.06   0.02     0.18  -0.09  -0.00
     9   1     0.06   0.03  -0.56     0.48   0.29   0.08    -0.20  -0.04  -0.01
    10   6     0.00  -0.01   0.24     0.01  -0.06  -0.04     0.02   0.01   0.01
    11   6    -0.00  -0.01  -0.06    -0.04  -0.13   0.01     0.03   0.04  -0.00
    12   1    -0.04  -0.01  -0.59    -0.30  -0.04   0.09     0.31  -0.03  -0.01
    13   1    -0.01  -0.01   0.05    -0.07  -0.11  -0.00     0.07   0.01   0.00
    14   7     0.00   0.00  -0.01     0.03   0.03  -0.00    -0.10  -0.09   0.00
    15   7    -0.00   0.00   0.02    -0.01   0.04  -0.00    -0.00  -0.05   0.00
    16   6    -0.01  -0.00  -0.01    -0.07  -0.03   0.00     0.06  -0.08  -0.00
    17   6    -0.02   0.00  -0.01    -0.16  -0.02  -0.00    -0.19  -0.18   0.00
    18   6    -0.00  -0.01  -0.01     0.04  -0.11  -0.00     0.28  -0.15   0.00
    19   6    -0.01   0.01   0.01    -0.13   0.13   0.00    -0.16   0.11  -0.00
    20   1    -0.01  -0.00   0.01    -0.11  -0.06  -0.01    -0.16  -0.20   0.01
    21   6     0.00  -0.00   0.00     0.06   0.01   0.00     0.30   0.17  -0.00
    22   1     0.00  -0.01   0.01     0.04  -0.11  -0.01     0.17  -0.19   0.01
    23   6     0.01   0.00  -0.01     0.06   0.03   0.00    -0.05   0.09  -0.00
    24   1    -0.02   0.01   0.04    -0.17   0.11  -0.01    -0.01   0.17   0.00
    25   1    -0.01   0.01   0.04    -0.04   0.08  -0.01     0.31   0.16   0.01
    26   7     0.01   0.00   0.00     0.09   0.02  -0.01    -0.09   0.07   0.00
    27   1     0.02   0.00   0.00     0.13   0.03   0.03    -0.03   0.11  -0.01
    28   1     0.01   0.00   0.00     0.08   0.04   0.02    -0.16   0.11  -0.04
    29   8     0.01  -0.00   0.05     0.09  -0.02  -0.01    -0.07   0.07   0.00
    30   8     0.00  -0.01   0.05     0.01  -0.13  -0.01    -0.02   0.05   0.00
    31   1     0.00  -0.01   0.14     0.02  -0.13  -0.03    -0.02   0.03   0.00
    32  16    -0.01   0.00  -0.03    -0.07   0.02   0.01    -0.08  -0.01  -0.00
    33   8     0.03   0.02  -0.01     0.03  -0.03   0.02     0.03  -0.01   0.04
    34   8     0.00   0.01   0.03     0.03   0.05  -0.01     0.04   0.02  -0.00
    35   8    -0.02  -0.03  -0.01     0.04  -0.02  -0.02     0.02  -0.02  -0.04
    36  16    -0.01  -0.01  -0.03    -0.09  -0.06   0.00    -0.01  -0.04  -0.00
    37   8    -0.03  -0.01  -0.02     0.01   0.01  -0.08    -0.01   0.03  -0.00
    38   8     0.00   0.01   0.03     0.03   0.07  -0.00     0.03  -0.01   0.00
    39   8     0.03   0.01  -0.00     0.00   0.01   0.08    -0.01   0.03   0.00
    40   1     0.01   0.01   0.05     0.10   0.12  -0.01    -0.06  -0.01   0.00
                     49                     50                     51
                      A                      A                      A
 Frequencies --    662.6617               715.1648               732.7432
 Red. masses --      8.8400                 5.4753                 6.3575
 Frc consts  --      2.2871                 1.6499                 2.0111
 IR Inten    --    211.6146                 2.8675                 1.0690
  Atom  AN      X      Y      Z        X      Y      Z        X      Y      Z
     1   6     0.09  -0.02   0.00    -0.00   0.00   0.32     0.13   0.15   0.01
     2   6     0.05   0.02   0.00    -0.00  -0.00  -0.20     0.17   0.04  -0.00
     3   6    -0.00   0.02  -0.00     0.00  -0.00  -0.19     0.04  -0.04  -0.00
     4   6    -0.24  -0.09  -0.00    -0.00  -0.00   0.21     0.02   0.01   0.00
     5   6    -0.04  -0.26   0.00     0.00  -0.00   0.03    -0.20   0.22  -0.00
     6   6     0.01  -0.09  -0.00     0.00  -0.00  -0.23    -0.15   0.16  -0.00
     7   6     0.07   0.05   0.00     0.00   0.00   0.23    -0.14  -0.10   0.00
     8   6    -0.27   0.08   0.00     0.00  -0.00  -0.11     0.03   0.03  -0.00
     9   1     0.00  -0.24   0.00     0.00  -0.00  -0.05    -0.32   0.16  -0.00
    10   6    -0.05  -0.02   0.00     0.00   0.00   0.12    -0.03   0.08   0.00
    11   6     0.09   0.06  -0.00     0.00   0.00  -0.09    -0.20  -0.02  -0.00
    12   1    -0.32   0.05  -0.00    -0.00  -0.00  -0.41     0.08   0.06  -0.01
    13   1     0.16   0.02  -0.00     0.00  -0.00  -0.51    -0.40   0.11  -0.01
    14   7     0.07  -0.06  -0.00    -0.00   0.00  -0.06     0.22  -0.07  -0.00
    15   7    -0.02  -0.07  -0.00    -0.00   0.00  -0.04     0.04  -0.16  -0.00
    16   6    -0.07  -0.03   0.00    -0.00   0.00  -0.07    -0.02   0.00   0.01
    17   6    -0.24  -0.01  -0.00     0.00   0.00   0.07    -0.10   0.06  -0.00
    18   6     0.09  -0.12  -0.00     0.00  -0.00   0.07    -0.03   0.01  -0.01
    19   6    -0.21   0.18   0.00     0.00  -0.00  -0.05    -0.11   0.08   0.01
    20   1    -0.19  -0.04  -0.01     0.00  -0.00   0.04    -0.13   0.09  -0.02
    21   6     0.12   0.03   0.00     0.00  -0.00  -0.05    -0.02  -0.02   0.01
    22   1     0.10  -0.12  -0.01     0.00  -0.00   0.05     0.00   0.02  -0.02
    23   6     0.06   0.04   0.00     0.00  -0.00   0.11     0.04  -0.01  -0.01
    24   1    -0.27   0.15  -0.01    -0.00  -0.00  -0.27    -0.22   0.04   0.00
    25   1     0.02   0.10  -0.00    -0.00   0.00  -0.26    -0.06   0.01   0.01
    26   7     0.10   0.04  -0.01    -0.00   0.00  -0.02     0.09  -0.00  -0.00
    27   1     0.18   0.06   0.04    -0.01  -0.01  -0.01     0.14   0.01   0.03
    28   1     0.06   0.08   0.02    -0.01   0.01  -0.01     0.07   0.02   0.02
    29   8     0.06   0.00  -0.00    -0.00   0.00   0.04     0.02  -0.12   0.00
    30   8    -0.04   0.04  -0.00    -0.00   0.00  -0.02     0.08  -0.06   0.00
    31   1    -0.04  -0.06   0.00    -0.00  -0.00  -0.09     0.08   0.18  -0.00
    32  16     0.17   0.01  -0.00    -0.00   0.00  -0.00     0.03  -0.02  -0.00
    33   8    -0.05   0.03  -0.09     0.01   0.00  -0.00    -0.01   0.02  -0.00
    34   8    -0.08  -0.05   0.00    -0.00   0.00   0.00     0.01  -0.04   0.00
    35   8    -0.05   0.04   0.09    -0.01  -0.00  -0.00    -0.01   0.01  -0.00
    36  16     0.09   0.13   0.00    -0.00   0.00   0.02     0.00  -0.05   0.00
    37   8     0.00  -0.06   0.08     0.03   0.01   0.01    -0.01   0.03   0.01
    38   8    -0.08  -0.02  -0.00    -0.00   0.00  -0.02     0.03  -0.05  -0.00
    39   8     0.00  -0.06  -0.08    -0.03  -0.01   0.01    -0.01   0.03  -0.01
    40   1     0.06   0.01  -0.00    -0.00   0.00   0.10    -0.00  -0.30   0.00
                     52                     53                     54
                      A                      A                      A
 Frequencies --    748.9898               788.7848               834.2102
 Red. masses --      4.1183                 9.6072                 5.2855
 Frc consts  --      1.3612                 3.5218                 2.1671
 IR Inten    --      2.9873                 0.2337                 1.6338
  Atom  AN      X      Y      Z        X      Y      Z        X      Y      Z
     1   6    -0.00  -0.00   0.08     0.00   0.00  -0.35    -0.05  -0.11  -0.00
     2   6    -0.01  -0.00  -0.00     0.00   0.00   0.48    -0.11  -0.03   0.00
     3   6    -0.00   0.00  -0.09     0.00  -0.00  -0.46    -0.05  -0.00  -0.00
     4   6     0.00  -0.00   0.07    -0.00   0.00   0.29     0.03   0.00   0.00
     5   6     0.00  -0.00  -0.00     0.00  -0.00  -0.12    -0.08   0.04  -0.00
     6   6     0.00  -0.00  -0.04     0.00   0.00   0.17    -0.08  -0.08   0.00
     7   6     0.00   0.00   0.07    -0.00   0.00   0.24     0.02   0.02   0.00
     8   6     0.00  -0.00  -0.03    -0.00   0.00  -0.08     0.10  -0.03  -0.00
     9   1     0.00  -0.00  -0.05     0.00  -0.00  -0.17    -0.10   0.03  -0.00
    10   6     0.00  -0.00   0.02     0.00   0.00   0.05     0.07  -0.00   0.00
    11   6     0.01   0.00  -0.02    -0.00  -0.00  -0.06     0.06   0.01  -0.00
    12   1     0.00  -0.00  -0.09    -0.00  -0.00  -0.23     0.14  -0.01   0.01
    13   1     0.01  -0.00  -0.14    -0.00  -0.00  -0.32     0.07  -0.00   0.00
    14   7    -0.01   0.00  -0.04    -0.00   0.00   0.07     0.04  -0.03   0.00
    15   7     0.00   0.01  -0.05    -0.00  -0.00   0.03     0.22   0.07   0.00
    16   6     0.01  -0.00   0.30    -0.00   0.00  -0.06     0.13  -0.01  -0.02
    17   6     0.00  -0.01  -0.14     0.00   0.00   0.01    -0.17  -0.16   0.01
    18   6    -0.00   0.00  -0.15     0.00  -0.00   0.02    -0.15   0.14   0.01
    19   6     0.00  -0.00   0.13     0.00   0.00  -0.02    -0.11  -0.08   0.01
    20   1    -0.00  -0.00  -0.36     0.00  -0.00   0.11    -0.37  -0.02  -0.03
    21   6     0.00   0.00   0.13     0.00  -0.00  -0.02    -0.13   0.10   0.02
    22   1    -0.01   0.00  -0.34     0.00  -0.00   0.10    -0.41   0.03  -0.06
    23   6    -0.01   0.00  -0.29     0.00  -0.00   0.05     0.05   0.00  -0.01
    24   1     0.01  -0.00   0.46    -0.00   0.00  -0.00    -0.12  -0.10  -0.07
    25   1     0.01  -0.00   0.48     0.00  -0.00  -0.02    -0.18   0.14  -0.13
    26   7    -0.00  -0.00   0.04    -0.00   0.00  -0.01     0.25  -0.02  -0.01
    27   1     0.03   0.02   0.02    -0.01  -0.00  -0.00     0.27  -0.04   0.05
    28   1     0.03  -0.02   0.02    -0.01   0.00  -0.01     0.31  -0.04   0.06
    29   8    -0.00   0.00   0.00     0.00  -0.00  -0.08    -0.02   0.06  -0.00
    30   8    -0.00   0.00  -0.01     0.00  -0.00  -0.03    -0.02   0.02  -0.00
    31   1    -0.00  -0.00  -0.02     0.00   0.00  -0.07    -0.02  -0.05  -0.00
    32  16    -0.00   0.00  -0.00    -0.00  -0.00   0.00    -0.02   0.00   0.00
    33   8     0.00  -0.00   0.00    -0.00  -0.00   0.00    -0.00  -0.01   0.02
    34   8    -0.00   0.00   0.00     0.00   0.00   0.00     0.00   0.02  -0.00
    35   8    -0.00  -0.00   0.00     0.00   0.00   0.00    -0.00  -0.01  -0.02
    36  16     0.00   0.00   0.00    -0.00  -0.00  -0.01     0.02   0.03  -0.00
    37   8     0.00   0.00   0.00    -0.01  -0.00  -0.00     0.01  -0.01   0.02
    38   8    -0.00   0.00  -0.00     0.00  -0.00   0.01    -0.03   0.02  -0.00
    39   8    -0.00  -0.00   0.00     0.01   0.01  -0.00     0.01  -0.01  -0.02
    40   1    -0.00   0.01  -0.03     0.00  -0.00  -0.09    -0.03   0.09   0.01
                     55                     56                     57
                      A                      A                      A
 Frequencies --    840.1031               867.1110               867.5221
 Red. masses --      1.2593                 1.6397                 1.5472
 Frc consts  --      0.5237                 0.7264                 0.6860
 IR Inten    --      0.8023               126.3251                 3.5571
  Atom  AN      X      Y      Z        X      Y      Z        X      Y      Z
     1   6     0.00   0.00   0.00    -0.00  -0.01   0.01     0.00   0.01  -0.01
     2   6     0.00   0.00  -0.00    -0.01  -0.00  -0.01     0.01   0.00  -0.00
     3   6     0.00   0.00  -0.00    -0.01   0.00   0.00     0.00  -0.00   0.00
     4   6    -0.00  -0.00   0.00     0.00   0.00   0.01    -0.00  -0.00   0.01
     5   6     0.00  -0.00   0.00    -0.01   0.00   0.02     0.01  -0.00   0.01
     6   6     0.00   0.00  -0.00    -0.01  -0.01  -0.01     0.01   0.01  -0.01
     7   6    -0.00  -0.00   0.00     0.00   0.00   0.05    -0.00  -0.00   0.06
     8   6    -0.00   0.00  -0.00     0.01  -0.00  -0.05    -0.01   0.00  -0.05
     9   1     0.00  -0.00  -0.00    -0.01   0.00  -0.12     0.01  -0.00  -0.12
    10   6    -0.00   0.00   0.00     0.01   0.00   0.04    -0.01   0.00   0.05
    11   6    -0.00  -0.00  -0.00     0.00  -0.00  -0.10    -0.00  -0.00  -0.12
    12   1    -0.00   0.00   0.00     0.01   0.00   0.32    -0.01   0.00   0.38
    13   1    -0.00   0.00  -0.00     0.00  -0.00   0.56    -0.00  -0.00   0.70
    14   7    -0.00  -0.00  -0.00     0.01  -0.00  -0.01    -0.01   0.00   0.00
    15   7    -0.00  -0.00   0.00     0.02   0.00  -0.02    -0.01  -0.00   0.02
    16   6    -0.00   0.00   0.01     0.00  -0.00   0.08    -0.00   0.00  -0.06
    17   6    -0.00   0.00  -0.07    -0.00   0.01  -0.04     0.00  -0.00   0.03
    18   6     0.00  -0.00   0.06    -0.01  -0.01  -0.05     0.00   0.00   0.04
    19   6     0.00  -0.00  -0.09    -0.01   0.01  -0.08     0.00  -0.01   0.06
    20   1    -0.00   0.00   0.45    -0.00   0.00   0.25     0.00  -0.00  -0.19
    21   6     0.00  -0.00   0.08    -0.01  -0.01  -0.09     0.01   0.01   0.07
    22   1     0.01   0.00  -0.39    -0.01  -0.01   0.29     0.01   0.01  -0.22
    23   6    -0.00  -0.00   0.01     0.01  -0.00   0.12    -0.01   0.00  -0.09
    24   1     0.00  -0.00   0.59    -0.01   0.01   0.38     0.01  -0.00  -0.30
    25   1    -0.00   0.00  -0.52    -0.02  -0.01   0.46     0.01   0.00  -0.36
    26   7    -0.00   0.01  -0.00     0.00  -0.00  -0.03    -0.00   0.00   0.02
    27   1    -0.01  -0.01   0.05    -0.01  -0.01  -0.02     0.01   0.01   0.01
    28   1     0.00  -0.01  -0.05    -0.01   0.01  -0.01     0.01  -0.01   0.01
    29   8     0.00  -0.00   0.00    -0.00   0.01   0.00     0.00  -0.00  -0.00
    30   8     0.00  -0.00  -0.00    -0.00   0.00  -0.01     0.00  -0.00  -0.01
    31   1     0.00   0.00   0.00    -0.00  -0.00  -0.04     0.00   0.00  -0.06
    32  16     0.00  -0.00  -0.00    -0.00   0.00  -0.00     0.00  -0.00  -0.01
    33   8     0.00   0.00  -0.00     0.00   0.00   0.00     0.00   0.00  -0.00
    34   8    -0.00  -0.00  -0.00     0.00   0.00   0.00     0.00  -0.00   0.00
    35   8     0.00   0.00   0.00    -0.00  -0.00  -0.00    -0.00  -0.00   0.00
    36  16    -0.00  -0.00   0.00     0.00   0.00   0.00    -0.00  -0.00   0.00
    37   8    -0.00   0.00   0.00     0.00  -0.00   0.00    -0.00   0.00  -0.00
    38   8     0.00  -0.00   0.00    -0.00   0.00  -0.00     0.00  -0.00  -0.00
    39   8     0.00  -0.00   0.00     0.00  -0.00  -0.00    -0.00   0.00   0.00
    40   1     0.00  -0.00  -0.01    -0.00   0.01  -0.06     0.00  -0.01   0.02
                     58                     59                     60
                      A                      A                      A
 Frequencies --    877.4472               893.0100               922.0079
 Red. masses --      7.1118                 1.3072                 9.1180
 Frc consts  --      3.2260                 0.6142                 4.5669
 IR Inten    --     17.2875                 4.9846                12.2875
  Atom  AN      X      Y      Z        X      Y      Z        X      Y      Z
     1   6     0.01  -0.15  -0.00     0.00   0.00  -0.02     0.05   0.11  -0.00
     2   6    -0.11  -0.04   0.00     0.00   0.00   0.01     0.03   0.01   0.00
     3   6    -0.07   0.01  -0.00     0.00   0.00  -0.00    -0.05  -0.00   0.00
     4   6     0.02   0.02   0.00    -0.00   0.00   0.00    -0.06   0.01  -0.00
     5   6    -0.14   0.05  -0.00     0.00   0.00   0.09    -0.06  -0.17   0.00
     6   6    -0.14  -0.19   0.00     0.00   0.00  -0.03    -0.06   0.03  -0.00
     7   6     0.01   0.01  -0.00     0.00  -0.00  -0.04    -0.02  -0.04  -0.00
     8   6     0.14   0.00  -0.00    -0.00  -0.00  -0.10     0.01   0.33   0.00
     9   1    -0.11   0.07  -0.00     0.00  -0.00  -0.64    -0.21  -0.25  -0.02
    10   6     0.15  -0.00  -0.00    -0.00  -0.00   0.02     0.47  -0.05  -0.00
    11   6     0.04  -0.03   0.00    -0.00   0.00   0.08     0.03  -0.32   0.00
    12   1     0.17   0.01   0.01     0.00   0.00   0.64    -0.22   0.23  -0.01
    13   1     0.01  -0.01  -0.02     0.00  -0.00  -0.40    -0.09  -0.24  -0.01
    14   7     0.13  -0.00   0.00    -0.00   0.00   0.00     0.05   0.03   0.00
    15   7     0.17   0.02   0.01    -0.00  -0.00   0.00    -0.12  -0.07   0.00
    16   6    -0.01   0.00  -0.02    -0.00   0.00  -0.00    -0.05  -0.01  -0.00
    17   6     0.08   0.22   0.01    -0.00  -0.00   0.00    -0.00  -0.02  -0.00
    18   6     0.03  -0.25   0.02     0.00   0.00   0.00     0.02   0.08   0.00
    19   6    -0.02   0.26   0.03     0.00  -0.00   0.00     0.02  -0.07  -0.00
    20   1     0.23   0.13  -0.08    -0.00  -0.00  -0.00    -0.01  -0.03   0.00
    21   6    -0.08  -0.26   0.03     0.00   0.00   0.00     0.06   0.08   0.00
    22   1     0.21  -0.19  -0.10    -0.00   0.00  -0.00     0.03   0.09  -0.00
    23   6     0.00   0.01  -0.04    -0.00  -0.00  -0.00    -0.01  -0.01   0.00
    24   1    -0.16   0.22  -0.12     0.00  -0.00  -0.01     0.04  -0.06   0.00
    25   1    -0.22  -0.18  -0.15     0.00   0.00  -0.01     0.13   0.03  -0.00
    26   7    -0.14   0.02   0.01     0.00  -0.00   0.00     0.01  -0.00  -0.00
    27   1    -0.18   0.01  -0.01     0.00   0.00   0.00     0.04   0.01   0.00
    28   1    -0.15   0.01  -0.01     0.00  -0.00   0.00    -0.02   0.01  -0.00
    29   8    -0.01   0.09  -0.00     0.00  -0.00  -0.00     0.04  -0.07   0.00
    30   8    -0.02   0.03   0.00     0.00  -0.00   0.01    -0.10   0.15  -0.00
    31   1    -0.03  -0.04  -0.00     0.00  -0.00   0.03    -0.10   0.02   0.00
    32  16    -0.03   0.00   0.00     0.00   0.00  -0.00    -0.04   0.00  -0.00
    33   8    -0.01  -0.02   0.04     0.00   0.00  -0.00    -0.03  -0.08   0.15
    34   8    -0.00   0.04  -0.00     0.00  -0.00   0.00    -0.02   0.18  -0.01
    35   8    -0.01  -0.02  -0.04    -0.00  -0.00  -0.00    -0.04  -0.09  -0.14
    36  16     0.02   0.04   0.00    -0.00  -0.00   0.00     0.00   0.00   0.00
    37   8     0.03  -0.01   0.05     0.01   0.00   0.00     0.00   0.01   0.01
    38   8    -0.05   0.04  -0.00     0.00  -0.00  -0.00     0.02  -0.02  -0.00
    39   8     0.03  -0.01  -0.05    -0.01  -0.00   0.00     0.00   0.01  -0.01
    40   1    -0.02   0.13   0.02     0.00  -0.00  -0.01     0.05  -0.01  -0.00
                     61                     62                     63
                      A                      A                      A
 Frequencies --    929.4867               946.7910               962.9675
 Red. masses --      1.4697                 8.2233                 1.0810
 Frc consts  --      0.7481                 4.3431                 0.5906
 IR Inten    --     29.7888                16.2942               115.1400
  Atom  AN      X      Y      Z        X      Y      Z        X      Y      Z
     1   6     0.00   0.00   0.02    -0.15   0.13   0.00    -0.00   0.00  -0.01
     2   6     0.00   0.00  -0.02    -0.09   0.01  -0.00     0.00   0.00   0.01
     3   6    -0.00   0.00   0.02    -0.08  -0.08   0.00     0.00   0.00   0.01
     4   6    -0.00   0.00   0.08    -0.02  -0.06   0.00    -0.00   0.00   0.00
     5   6     0.00  -0.00  -0.13     0.11  -0.07  -0.00     0.00  -0.00  -0.00
     6   6    -0.00  -0.00   0.03     0.16   0.40   0.00     0.00   0.00  -0.00
     7   6     0.00  -0.00  -0.03     0.03  -0.01  -0.00     0.00  -0.00  -0.00
     8   6     0.00   0.00  -0.11    -0.09   0.05  -0.00    -0.00   0.00  -0.00
     9   1    -0.00   0.00   0.75    -0.25  -0.25   0.01    -0.00  -0.00   0.01
    10   6     0.00  -0.00   0.02     0.02  -0.03   0.00     0.00  -0.00   0.00
    11   6    -0.00  -0.00   0.04     0.10   0.00   0.00    -0.00  -0.00  -0.00
    12   1     0.00   0.01   0.60    -0.18   0.01   0.01    -0.00   0.00   0.03
    13   1    -0.00  -0.00  -0.17     0.21  -0.07  -0.00    -0.00  -0.00   0.01
    14   7     0.00   0.00  -0.00    -0.06  -0.09  -0.00    -0.00  -0.00   0.02
    15   7    -0.00  -0.00  -0.00     0.27   0.08  -0.00     0.00  -0.00  -0.05
    16   6    -0.00  -0.00   0.00     0.15   0.02   0.00     0.00   0.00   0.00
    17   6    -0.00  -0.00  -0.00    -0.01   0.04  -0.00    -0.00  -0.00   0.02
    18   6     0.00   0.00  -0.00    -0.03  -0.13  -0.00    -0.00   0.00   0.01
    19   6     0.00  -0.00  -0.00    -0.07   0.14   0.00    -0.00   0.00  -0.02
    20   1     0.00  -0.00  -0.00    -0.05   0.08   0.00    -0.00   0.00  -0.11
    21   6     0.00   0.00  -0.00    -0.12  -0.16  -0.00    -0.00  -0.00  -0.01
    22   1     0.00   0.00  -0.00    -0.13  -0.18   0.01    -0.00   0.00  -0.05
    23   6    -0.00  -0.00   0.00     0.01   0.02   0.00     0.00  -0.00   0.00
    24   1     0.00  -0.00   0.00    -0.12   0.13   0.00     0.00   0.00   0.10
    25   1     0.00   0.00   0.00    -0.26  -0.08   0.00     0.00  -0.00   0.04
    26   7     0.00  -0.00  -0.00     0.00   0.01  -0.00     0.00   0.00  -0.00
    27   1     0.00   0.00  -0.00    -0.06  -0.02   0.01    -0.00  -0.00   0.00
    28   1    -0.00   0.00  -0.00     0.05  -0.02   0.03     0.00   0.00  -0.00
    29   8     0.00  -0.00   0.01     0.04  -0.13   0.00     0.00  -0.00  -0.04
    30   8    -0.00   0.00   0.01    -0.03   0.08  -0.00    -0.00   0.00   0.00
    31   1    -0.00  -0.00   0.01    -0.03  -0.00   0.00     0.00  -0.00  -0.08
    32  16    -0.00   0.00  -0.00     0.00   0.00   0.00    -0.00   0.00  -0.00
    33   8     0.00   0.00  -0.00     0.00  -0.01   0.00     0.00   0.00   0.00
    34   8     0.00   0.00   0.00    -0.01   0.02  -0.00     0.00   0.00   0.00
    35   8    -0.00  -0.00  -0.00     0.00  -0.01  -0.00    -0.00  -0.00  -0.00
    36  16     0.00   0.00  -0.00    -0.00  -0.01  -0.00    -0.00  -0.00   0.00
    37   8    -0.00  -0.00  -0.00    -0.09   0.01  -0.13     0.00   0.00   0.00
    38   8    -0.00   0.00   0.00     0.13  -0.12   0.00     0.00  -0.00  -0.00
    39   8     0.00   0.00  -0.00    -0.09   0.01   0.13    -0.00  -0.00   0.00
    40   1     0.00   0.00  -0.02    -0.00  -0.15  -0.00    -0.00   0.00   0.98
                     64                     65                     66
                      A                      A                      A
 Frequencies --    987.1536              1009.9481              1020.0451
 Red. masses --      1.3319                 1.3346                12.2865
 Frc consts  --      0.7647                 0.8020                 7.5321
 IR Inten    --      9.1942                 0.3053               515.2449
  Atom  AN      X      Y      Z        X      Y      Z        X      Y      Z
     1   6    -0.00  -0.00   0.00     0.00   0.00   0.00    -0.04   0.11  -0.00
     2   6    -0.00  -0.00   0.00     0.00   0.00  -0.00     0.12   0.08  -0.00
     3   6    -0.00  -0.00   0.00     0.00   0.00   0.00     0.11  -0.02   0.00
     4   6     0.00   0.00   0.00     0.00  -0.00  -0.00     0.00  -0.03   0.00
     5   6     0.00   0.00  -0.00     0.00  -0.00  -0.00     0.08  -0.05   0.00
     6   6    -0.00  -0.00  -0.00    -0.00  -0.00   0.00     0.05   0.14  -0.00
     7   6     0.00   0.00  -0.00    -0.00   0.00  -0.00     0.00  -0.02  -0.00
     8   6     0.00  -0.00  -0.00    -0.00   0.00   0.00    -0.08   0.15  -0.00
     9   1     0.00   0.00   0.00     0.00   0.00  -0.00     0.04  -0.08  -0.00
    10   6    -0.00  -0.00   0.00    -0.00   0.00  -0.00     0.02  -0.01  -0.00
    11   6     0.00   0.00  -0.00    -0.00  -0.00   0.00    -0.05  -0.13   0.00
    12   1     0.00  -0.00   0.00    -0.00   0.00  -0.00    -0.12   0.14  -0.00
    13   1     0.00   0.00   0.00    -0.00  -0.00   0.00    -0.02  -0.16  -0.00
    14   7     0.00   0.00   0.00    -0.00  -0.00   0.00    -0.21  -0.09  -0.00
    15   7    -0.00  -0.00  -0.02     0.00   0.00  -0.01     0.14   0.08  -0.00
    16   6     0.00  -0.00   0.05    -0.00   0.00   0.02     0.10   0.04   0.00
    17   6     0.00   0.00  -0.12    -0.00   0.00   0.05    -0.02  -0.06  -0.00
    18   6     0.00  -0.00  -0.05     0.00  -0.00  -0.12    -0.01  -0.03   0.00
    19   6     0.00  -0.00   0.09     0.00  -0.00  -0.05    -0.02   0.06   0.00
    20   1     0.00  -0.00   0.73    -0.01   0.01  -0.29    -0.04  -0.04   0.01
    21   6     0.00   0.00   0.03    -0.00   0.00   0.09    -0.07  -0.12  -0.00
    22   1    -0.00  -0.00   0.33     0.01  -0.00   0.74    -0.03  -0.04  -0.01
    23   6    -0.00  -0.00  -0.01    -0.00   0.00  -0.00     0.00   0.04   0.00
    24   1    -0.01  -0.00  -0.50    -0.00  -0.01   0.24     0.07   0.11  -0.01
    25   1    -0.00   0.01  -0.18    -0.01   0.01  -0.53    -0.10  -0.10   0.01
    26   7    -0.00  -0.00   0.00     0.00   0.00   0.00     0.01   0.02  -0.00
    27   1     0.00   0.00  -0.00    -0.01  -0.00   0.00    -0.13  -0.04  -0.01
    28   1    -0.00   0.00   0.00     0.01  -0.01  -0.01     0.13  -0.06   0.03
    29   8     0.00   0.00  -0.01    -0.00   0.00  -0.00    -0.02  -0.04   0.00
    30   8     0.00  -0.00   0.00     0.00  -0.00   0.00    -0.02   0.03  -0.00
    31   1     0.00  -0.00  -0.02     0.00   0.00  -0.00    -0.02   0.01  -0.00
    32  16    -0.00   0.00  -0.00     0.00  -0.00   0.00    -0.05  -0.00   0.00
    33   8     0.00   0.00  -0.00    -0.00  -0.00   0.00     0.03   0.04  -0.08
    34   8     0.00  -0.00   0.00    -0.00   0.00   0.00     0.02  -0.08   0.00
    35   8     0.00   0.00   0.00    -0.00  -0.00  -0.00     0.03   0.05   0.07
    36  16     0.00   0.00  -0.00    -0.00  -0.00  -0.00    -0.10  -0.19  -0.00
    37   8     0.00  -0.00  -0.00     0.00  -0.00   0.00     0.21   0.01   0.31
    38   8     0.00  -0.00  -0.00    -0.00   0.00  -0.00    -0.26   0.28  -0.00
    39   8    -0.00   0.00  -0.00    -0.00   0.00  -0.00     0.22   0.01  -0.31
    40   1     0.00   0.00   0.19    -0.00  -0.00   0.00    -0.03  -0.30  -0.00
                     67                     68                     69
                      A                      A                      A
 Frequencies --   1022.5787              1031.2374              1037.2067
 Red. masses --     11.9348                 2.5206                 8.6741
 Frc consts  --      7.3529                 1.5793                 5.4980
 IR Inten    --    470.0567                 4.5280                58.9787
  Atom  AN      X      Y      Z        X      Y      Z        X      Y      Z
     1   6    -0.02  -0.03   0.00     0.00  -0.00   0.00     0.01  -0.04   0.00
     2   6     0.17   0.05  -0.00    -0.01  -0.01  -0.00     0.24   0.08   0.00
     3   6     0.19   0.04   0.00    -0.01  -0.00  -0.00     0.28   0.16   0.00
     4   6     0.02  -0.02   0.00    -0.00   0.00   0.00     0.03   0.04  -0.00
     5   6     0.03   0.03  -0.00    -0.00   0.00  -0.00    -0.05  -0.09   0.00
     6   6     0.01  -0.06  -0.00     0.00  -0.00   0.00    -0.10  -0.19  -0.00
     7   6    -0.02   0.03   0.00     0.00  -0.00   0.00    -0.02   0.06  -0.00
     8   6    -0.08  -0.09  -0.00     0.00  -0.01   0.00    -0.01   0.18   0.00
     9   1     0.21   0.12   0.00     0.00   0.00   0.00     0.09  -0.02   0.00
    10   6    -0.14   0.03   0.00    -0.00  -0.00   0.00     0.03   0.05  -0.00
    11   6    -0.12   0.08  -0.00     0.01   0.01  -0.00    -0.19  -0.24   0.00
    12   1    -0.11  -0.10   0.01     0.00  -0.01   0.00     0.12   0.25  -0.01
    13   1    -0.25   0.17   0.00     0.01   0.01   0.00    -0.24  -0.23  -0.00
    14   7    -0.19  -0.07  -0.00     0.02   0.02  -0.00    -0.25  -0.09  -0.00
    15   7     0.09   0.08   0.00    -0.03  -0.02  -0.00     0.09   0.09  -0.00
    16   6     0.06   0.04   0.00     0.00  -0.01   0.00     0.08   0.05   0.00
    17   6    -0.01  -0.03  -0.00    -0.04  -0.18  -0.00    -0.02  -0.05  -0.00
    18   6    -0.01  -0.05   0.00     0.00   0.20  -0.00    -0.01  -0.04   0.00
    19   6    -0.01   0.02   0.00     0.00   0.17   0.00    -0.01   0.02   0.00
    20   1    -0.04  -0.00   0.01     0.24  -0.39   0.00    -0.07  -0.01   0.01
    21   6    -0.04  -0.06  -0.00    -0.03  -0.17   0.00    -0.05  -0.09  -0.00
    22   1    -0.05  -0.07  -0.01     0.34   0.36   0.02    -0.04  -0.06  -0.00
    23   6     0.01   0.03   0.00    -0.00  -0.00   0.00    -0.00   0.04   0.00
    24   1     0.03   0.04  -0.01     0.31   0.32  -0.01     0.09   0.06  -0.01
    25   1    -0.10  -0.03   0.01     0.26  -0.37  -0.03    -0.08  -0.08   0.01
    26   7     0.00   0.02   0.00    -0.01  -0.00  -0.01     0.01   0.03  -0.00
    27   1    -0.11  -0.03  -0.02     0.00  -0.00   0.03    -0.17  -0.05  -0.02
    28   1     0.11  -0.05   0.02    -0.01   0.01   0.03     0.18  -0.08   0.05
    29   8    -0.06   0.05  -0.00     0.00  -0.00  -0.00    -0.07   0.08  -0.00
    30   8     0.05  -0.08   0.00    -0.00  -0.00   0.00     0.02  -0.07   0.00
    31   1     0.05   0.04   0.00     0.00   0.00  -0.00     0.01  -0.07   0.00
    32  16     0.23  -0.00  -0.00     0.00   0.00  -0.00    -0.07   0.00   0.00
    33   8    -0.14  -0.16   0.33    -0.00  -0.00   0.00     0.04   0.05  -0.09
    34   8    -0.10   0.35  -0.02    -0.00   0.00  -0.00     0.04  -0.12   0.01
    35   8    -0.14  -0.19  -0.31    -0.00  -0.00  -0.00     0.04   0.05   0.08
    36  16    -0.00  -0.01  -0.00     0.00   0.01   0.00     0.05   0.10   0.00
    37   8     0.01  -0.00   0.01    -0.01  -0.00  -0.01    -0.08  -0.01  -0.12
    38   8    -0.02   0.03  -0.00     0.01  -0.01   0.00     0.10  -0.11   0.00
    39   8     0.01  -0.00  -0.01    -0.01  -0.00   0.01    -0.08  -0.01   0.12
    40   1    -0.06  -0.23  -0.00     0.01   0.04   0.00    -0.07  -0.28  -0.00
                     70                     71                     72
                      A                      A                      A
 Frequencies --   1079.2540              1115.1761              1122.9933
 Red. masses --      1.4360                 6.5036                 1.8331
 Frc consts  --      0.9855                 4.7653                 1.3620
 IR Inten    --      3.3395               171.5556               215.5598
  Atom  AN      X      Y      Z        X      Y      Z        X      Y      Z
     1   6    -0.01   0.00  -0.00    -0.06   0.09  -0.00    -0.03  -0.02  -0.00
     2   6     0.01   0.00   0.00    -0.11   0.07  -0.00    -0.05  -0.04   0.00
     3   6     0.02   0.01   0.00    -0.10   0.40  -0.00     0.01  -0.01  -0.00
     4   6     0.01   0.00   0.00     0.00   0.15  -0.00     0.05  -0.02   0.00
     5   6     0.00  -0.01   0.00    -0.02  -0.28   0.00    -0.01   0.02   0.00
     6   6    -0.00  -0.00   0.00    -0.02   0.05  -0.00     0.01   0.02   0.00
     7   6     0.00   0.01  -0.00    -0.02   0.18  -0.00     0.01   0.04  -0.00
     8   6    -0.01   0.01  -0.00     0.16  -0.13   0.00    -0.01   0.10   0.00
     9   1     0.00  -0.01   0.00    -0.36  -0.47  -0.00    -0.10  -0.02  -0.00
    10   6    -0.01   0.01  -0.00    -0.01   0.05  -0.00    -0.16   0.05  -0.00
    11   6    -0.01  -0.02   0.00    -0.08  -0.01  -0.00     0.00  -0.12   0.00
    12   1     0.02   0.02  -0.00     0.30  -0.07  -0.00     0.45   0.33  -0.01
    13   1     0.00  -0.03  -0.00    -0.13   0.02  -0.00     0.56  -0.52   0.00
    14   7    -0.02  -0.00  -0.00     0.03  -0.01   0.00     0.06   0.02   0.00
    15   7     0.02   0.01   0.00     0.00  -0.02   0.00    -0.01  -0.02   0.00
    16   6     0.02  -0.04   0.00     0.00  -0.01  -0.00    -0.01  -0.01  -0.00
    17   6     0.04   0.02   0.00     0.00   0.00   0.00    -0.00   0.01   0.00
    18   6    -0.03   0.02  -0.00     0.01   0.00   0.00     0.00   0.01   0.00
    19   6    -0.01   0.08  -0.00    -0.01  -0.00   0.00    -0.00  -0.01   0.00
    20   1     0.22  -0.11  -0.00    -0.00   0.01  -0.00     0.00   0.00  -0.00
    21   6     0.01   0.06   0.00    -0.01  -0.00  -0.00     0.00   0.00  -0.00
    22   1    -0.28  -0.08   0.01     0.03   0.01  -0.00     0.06   0.03  -0.00
    23   6    -0.01  -0.08  -0.00     0.01   0.00  -0.00     0.00   0.00  -0.00
    24   1    -0.03   0.08   0.01    -0.05  -0.02  -0.00    -0.03  -0.02  -0.00
    25   1     0.02   0.06  -0.02    -0.03   0.01   0.00     0.01   0.00   0.00
    26   7    -0.01  -0.10  -0.00    -0.00   0.01   0.00    -0.00   0.01   0.00
    27   1     0.61   0.14   0.11    -0.04  -0.01  -0.02    -0.05  -0.01  -0.01
    28   1    -0.57   0.26  -0.11     0.03  -0.01  -0.00     0.04  -0.02   0.00
    29   8    -0.01   0.00  -0.00     0.10  -0.14   0.00    -0.01   0.01  -0.00
    30   8     0.00  -0.01   0.00     0.06  -0.19   0.00     0.00  -0.01   0.00
    31   1     0.00  -0.01   0.00     0.06  -0.22   0.00     0.00  -0.09   0.00
    32  16     0.00   0.00  -0.00     0.01   0.02  -0.00     0.03   0.01  -0.00
    33   8    -0.00  -0.00   0.00    -0.01  -0.01   0.03    -0.01  -0.01   0.02
    34   8     0.00  -0.00   0.00     0.01  -0.03   0.00     0.00   0.00   0.00
    35   8    -0.00  -0.00  -0.00    -0.02  -0.02  -0.03    -0.01  -0.01  -0.02
    36  16     0.00  -0.00  -0.00    -0.04  -0.00  -0.00    -0.00  -0.01   0.00
    37   8     0.00  -0.00   0.00     0.03   0.01   0.05     0.00   0.00   0.00
    38   8    -0.00   0.00  -0.00     0.02  -0.02   0.00    -0.01   0.01  -0.00
    39   8     0.00  -0.00  -0.00     0.03   0.01  -0.05     0.00   0.00  -0.00
    40   1    -0.00  -0.01  -0.00     0.06   0.07   0.00    -0.01   0.09  -0.00
                     73                     74                     75
                      A                      A                      A
 Frequencies --   1153.6296              1156.7225              1159.2304
 Red. masses --     20.3110                 1.3466                 6.4035
 Frc consts  --     15.9263                 1.0616                 5.0700
 IR Inten    --    612.8629                68.9898               519.8237
  Atom  AN      X      Y      Z        X      Y      Z        X      Y      Z
     1   6    -0.00  -0.00   0.00     0.01  -0.01   0.00    -0.02   0.04  -0.00
     2   6    -0.00  -0.00  -0.00     0.00  -0.00   0.00    -0.02   0.04  -0.00
     3   6     0.00  -0.00  -0.00    -0.00  -0.01   0.00    -0.02   0.04  -0.00
     4   6     0.00  -0.00   0.00     0.00  -0.00   0.00    -0.02   0.00  -0.00
     5   6    -0.00   0.00  -0.00     0.00   0.01  -0.00    -0.01  -0.04   0.00
     6   6     0.00   0.00   0.00     0.00   0.00  -0.00    -0.01   0.01  -0.00
     7   6    -0.00   0.00   0.00     0.00  -0.00   0.00    -0.00   0.01   0.00
     8   6    -0.00   0.00   0.00    -0.00   0.00  -0.00     0.02  -0.02   0.00
     9   1    -0.01  -0.00   0.00    -0.04  -0.01  -0.00     0.15   0.04   0.00
    10   6    -0.01   0.00  -0.01    -0.00  -0.00  -0.00     0.01   0.00   0.00
    11   6    -0.00  -0.00  -0.01     0.00  -0.00   0.00     0.00  -0.00  -0.00
    12   1     0.01   0.01  -0.03    -0.01   0.00   0.00     0.12   0.02  -0.00
    13   1     0.02  -0.01   0.01     0.01  -0.01  -0.00    -0.03   0.02   0.00
    14   7     0.00   0.00   0.00    -0.00  -0.01  -0.00     0.01  -0.01  -0.00
    15   7    -0.00  -0.00  -0.00     0.01   0.00   0.00     0.01  -0.02   0.00
    16   6    -0.00  -0.00   0.00    -0.02   0.02   0.00    -0.01   0.02   0.00
    17   6     0.00   0.00  -0.00    -0.05  -0.01  -0.00    -0.05  -0.01  -0.00
    18   6    -0.00   0.00  -0.00     0.05  -0.03   0.00     0.04  -0.02   0.00
    19   6    -0.00  -0.00  -0.00     0.06  -0.01   0.00     0.05  -0.01   0.00
    20   1     0.00  -0.00   0.00    -0.35   0.19   0.00    -0.30   0.17   0.00
    21   6     0.00   0.00  -0.00    -0.05   0.01  -0.00    -0.05   0.01  -0.00
    22   1     0.00   0.00   0.00     0.45   0.15  -0.00     0.38   0.13  -0.00
    23   6     0.00  -0.00  -0.00     0.00   0.00  -0.00     0.01   0.00  -0.00
    24   1    -0.01  -0.00  -0.00     0.48   0.16  -0.00     0.39   0.14  -0.00
    25   1     0.00  -0.00   0.00    -0.43   0.27   0.01    -0.36   0.23   0.01
    26   7    -0.00   0.00   0.00    -0.01  -0.04   0.00    -0.01  -0.03   0.00
    27   1    -0.00  -0.00  -0.00     0.20   0.04   0.03     0.14   0.03   0.02
    28   1     0.00  -0.00   0.00    -0.19   0.07  -0.04    -0.15   0.06  -0.03
    29   8    -0.00   0.00  -0.00    -0.00   0.00  -0.00     0.02  -0.03   0.00
    30   8     0.00  -0.00  -0.00    -0.00   0.00  -0.00     0.00  -0.01   0.00
    31   1     0.00  -0.00  -0.00    -0.00  -0.00   0.00     0.00  -0.00   0.00
    32  16     0.01   0.01   0.52     0.00  -0.00   0.00    -0.00   0.03  -0.00
    33   8     0.18   0.25  -0.53     0.00   0.00  -0.00    -0.00  -0.01   0.01
    34   8    -0.01   0.03  -0.02    -0.00   0.00  -0.00     0.01  -0.04   0.00
    35   8    -0.18  -0.30  -0.48     0.00   0.00   0.00    -0.01  -0.01  -0.01
    36  16     0.00  -0.00  -0.00    -0.04   0.02   0.00     0.24  -0.13  -0.00
    37   8     0.00   0.00   0.00     0.02  -0.00   0.02    -0.11   0.01  -0.14
    38   8    -0.00   0.00   0.00     0.04  -0.04   0.00    -0.25   0.25  -0.00
    39   8    -0.00   0.00   0.00     0.02  -0.00  -0.03    -0.11   0.01   0.14
    40   1    -0.00   0.00   0.00    -0.00  -0.01  -0.00     0.00  -0.04   0.00
                     76                     77                     78
                      A                      A                      A
 Frequencies --   1165.1885              1168.1347              1183.4777
 Red. masses --     20.3810                15.2332                 1.2862
 Frc consts  --     16.3030                12.2469                 1.0614
 IR Inten    --    622.2513               531.2194               521.5379
  Atom  AN      X      Y      Z        X      Y      Z        X      Y      Z
     1   6    -0.00   0.00   0.00     0.04  -0.00   0.00    -0.00  -0.03   0.00
     2   6    -0.00   0.00   0.00     0.03   0.02   0.00    -0.01  -0.00  -0.00
     3   6    -0.00   0.00  -0.00    -0.04  -0.06  -0.00     0.03   0.00   0.00
     4   6    -0.00  -0.00   0.01    -0.09  -0.03  -0.00     0.04   0.00   0.00
     5   6    -0.00  -0.00   0.00     0.02   0.05   0.00    -0.01   0.00  -0.00
     6   6    -0.00   0.00  -0.02    -0.00   0.01   0.00     0.02   0.01   0.00
     7   6     0.00   0.00   0.00     0.05  -0.06   0.00    -0.01   0.00  -0.00
     8   6     0.00  -0.00  -0.00    -0.01  -0.01   0.00    -0.02   0.00  -0.00
     9   1     0.00   0.00  -0.04     0.28   0.19  -0.00    -0.19  -0.09  -0.00
    10   6     0.00  -0.00   0.00     0.03  -0.05   0.00     0.01   0.01  -0.00
    11   6     0.00  -0.00   0.00     0.03   0.00  -0.00     0.00  -0.00   0.00
    12   1     0.00   0.00   0.00     0.25   0.11  -0.01    -0.18  -0.07   0.00
    13   1    -0.00   0.00  -0.00    -0.17   0.15   0.00    -0.01   0.01  -0.00
    14   7    -0.00  -0.00  -0.01    -0.03  -0.00   0.00    -0.01  -0.01  -0.00
    15   7     0.00  -0.00   0.00    -0.00   0.01  -0.00     0.06   0.01   0.00
    16   6    -0.00  -0.00  -0.00     0.01   0.01   0.00    -0.08   0.01   0.00
    17   6     0.00   0.00   0.00     0.00  -0.00  -0.00     0.03  -0.03   0.00
    18   6    -0.00   0.00  -0.00    -0.01  -0.00  -0.00     0.02   0.02   0.00
    19   6    -0.00   0.00  -0.00     0.00   0.00  -0.00    -0.03  -0.03  -0.00
    20   1     0.01  -0.00   0.00    -0.02   0.01   0.00     0.44  -0.33  -0.00
    21   6     0.00   0.00   0.00     0.01  -0.01   0.00    -0.02   0.04  -0.00
    22   1    -0.00  -0.00   0.01    -0.09  -0.04   0.00     0.44   0.21  -0.00
    23   6     0.00  -0.00   0.00    -0.01   0.00   0.00     0.03  -0.01  -0.00
    24   1    -0.01  -0.00   0.00     0.04   0.02  -0.00    -0.40  -0.20   0.00
    25   1     0.00  -0.00  -0.00     0.06  -0.04  -0.00    -0.30   0.24   0.01
    26   7     0.00   0.00   0.00     0.00  -0.00  -0.00    -0.01   0.00   0.01
    27   1    -0.00  -0.00  -0.00     0.01   0.00   0.01    -0.04  -0.00  -0.03
    28   1     0.00  -0.00   0.00     0.00   0.00   0.01    -0.02   0.00  -0.02
    29   8     0.00  -0.00  -0.00    -0.00  -0.00  -0.00    -0.01   0.01  -0.00
    30   8    -0.00  -0.00   0.00    -0.02   0.06  -0.00     0.00  -0.00   0.00
    31   1     0.00   0.00   0.00    -0.02  -0.04  -0.00    -0.00   0.03  -0.00
    32  16     0.00   0.00   0.00     0.02   0.45  -0.01    -0.00   0.01  -0.00
    33   8     0.00   0.00  -0.00    -0.07  -0.12   0.21    -0.00  -0.00   0.00
    34   8     0.00  -0.00  -0.00     0.12  -0.58   0.03     0.00  -0.02   0.00
    35   8    -0.00  -0.00  -0.00    -0.09  -0.17  -0.23    -0.00  -0.00  -0.00
    36  16     0.00  -0.00   0.53    -0.04   0.02  -0.00     0.00  -0.00  -0.00
    37   8    -0.32   0.00  -0.51     0.02  -0.00   0.02    -0.00  -0.00  -0.00
    38   8    -0.00   0.00  -0.02     0.04  -0.05   0.00    -0.00   0.00  -0.00
    39   8     0.32  -0.00  -0.50     0.02  -0.00  -0.02    -0.00  -0.00   0.00
    40   1     0.00  -0.00   0.00     0.00  -0.03   0.00    -0.01  -0.03  -0.00
                     79                     80                     81
                      A                      A                      A
 Frequencies --   1188.4715              1219.8395              1242.6475
 Red. masses --      1.8949                 2.2335                 2.2728
 Frc consts  --      1.5769                 1.9581                 2.0678
 IR Inten    --     56.3512               408.1477                 5.5187
  Atom  AN      X      Y      Z        X      Y      Z        X      Y      Z
     1   6     0.06   0.02   0.00    -0.09   0.15  -0.00     0.16  -0.05   0.00
     2   6     0.04   0.08  -0.00    -0.03   0.11  -0.00     0.02   0.08  -0.00
     3   6    -0.11  -0.01  -0.00     0.02  -0.03   0.00    -0.09   0.01  -0.00
     4   6    -0.15  -0.04  -0.00     0.08   0.04   0.00     0.01   0.01   0.00
     5   6     0.02   0.02   0.00    -0.00  -0.05   0.00    -0.03   0.04  -0.00
     6   6    -0.04   0.01  -0.00    -0.07  -0.12  -0.00     0.02  -0.01   0.00
     7   6     0.05  -0.02   0.00    -0.10  -0.06  -0.00    -0.08  -0.03  -0.00
     8   6     0.08  -0.01   0.00    -0.01  -0.03   0.00     0.03  -0.01   0.00
     9   1     0.47   0.25   0.00     0.54   0.22   0.00    -0.43  -0.16  -0.00
    10   6    -0.01  -0.05   0.00     0.00   0.06  -0.00     0.01   0.03  -0.00
    11   6    -0.01   0.00  -0.00     0.07   0.02   0.00     0.05   0.04   0.00
    12   1     0.65   0.25  -0.01    -0.20  -0.12   0.00    -0.10  -0.07   0.00
    13   1    -0.04   0.02   0.00     0.44  -0.23   0.00     0.45  -0.24   0.00
    14   7    -0.06  -0.02  -0.00     0.01  -0.01   0.00    -0.09  -0.05  -0.00
    15   7     0.04   0.02   0.00    -0.01  -0.02   0.00     0.06   0.06  -0.00
    16   6    -0.04   0.02   0.00     0.05  -0.00  -0.00    -0.14   0.06   0.00
    17   6     0.01  -0.02   0.00     0.01  -0.01   0.00    -0.02  -0.01  -0.00
    18   6     0.00   0.00   0.00     0.01   0.00   0.00    -0.04  -0.03  -0.00
    19   6    -0.01  -0.02  -0.00    -0.01   0.01   0.00     0.03  -0.03  -0.00
    20   1     0.21  -0.16  -0.00     0.01  -0.01  -0.00     0.05  -0.07   0.00
    21   6    -0.00   0.01   0.00    -0.02  -0.01  -0.00     0.05   0.01   0.00
    22   1     0.13   0.06  -0.00     0.03   0.01  -0.00    -0.19  -0.09   0.00
    23   6     0.01   0.00  -0.00     0.01  -0.00  -0.00     0.00   0.01  -0.00
    24   1    -0.14  -0.07   0.00    -0.10  -0.03   0.00     0.33   0.09  -0.00
    25   1    -0.11   0.09   0.00    -0.12   0.06   0.00     0.26  -0.14  -0.00
    26   7    -0.00  -0.00   0.00    -0.00   0.00   0.00    -0.00  -0.00   0.00
    27   1     0.00   0.00  -0.00    -0.01  -0.00  -0.00     0.03   0.01  -0.00
    28   1    -0.02   0.01  -0.01    -0.01   0.00  -0.00    -0.02   0.00  -0.01
    29   8     0.03  -0.05   0.00     0.04  -0.06   0.00     0.03  -0.02   0.00
    30   8    -0.01   0.02  -0.00    -0.02  -0.01   0.00    -0.01  -0.03   0.00
    31   1    -0.00  -0.06   0.00    -0.02   0.44  -0.00    -0.01   0.34  -0.00
    32  16     0.00  -0.02   0.00    -0.00   0.00  -0.00    -0.00   0.00  -0.00
    33   8     0.00   0.01  -0.01    -0.00  -0.00   0.00    -0.00  -0.00   0.00
    34   8    -0.01   0.04  -0.00     0.00  -0.01   0.00     0.00  -0.01   0.00
    35   8     0.00   0.01   0.01    -0.00  -0.00  -0.00    -0.00  -0.00  -0.00
    36  16    -0.01   0.01  -0.00    -0.01   0.02  -0.00     0.01  -0.00   0.00
    37   8     0.00  -0.00   0.00     0.00  -0.00   0.00    -0.00  -0.00  -0.01
    38   8     0.01  -0.02   0.00     0.02  -0.01   0.00    -0.01   0.00  -0.00
    39   8     0.00  -0.00  -0.00     0.00  -0.00  -0.00    -0.00  -0.00   0.01
    40   1     0.02  -0.12   0.00     0.01  -0.16   0.00     0.01  -0.17   0.00
                     82                     83                     84
                      A                      A                      A
 Frequencies --   1283.0544              1294.2454              1332.2701
 Red. masses --      3.1053                 2.7499                 2.5724
 Frc consts  --      3.0119                 2.7140                 2.6901
 IR Inten    --    446.8125                 3.9105               476.1866
  Atom  AN      X      Y      Z        X      Y      Z        X      Y      Z
     1   6     0.13  -0.04   0.00    -0.12  -0.02  -0.00    -0.07  -0.08  -0.00
     2   6     0.11  -0.07   0.00     0.05  -0.04   0.00     0.04  -0.00   0.00
     3   6    -0.11  -0.03  -0.00    -0.01  -0.08   0.00     0.04   0.05  -0.00
     4   6    -0.08  -0.02  -0.00    -0.06  -0.05  -0.00    -0.04  -0.05  -0.00
     5   6     0.02   0.01   0.00     0.04  -0.03   0.00     0.01   0.02   0.00
     6   6    -0.02   0.04  -0.00    -0.07   0.08  -0.00     0.03   0.04   0.00
     7   6    -0.06   0.10  -0.00    -0.01   0.18  -0.00    -0.07   0.03  -0.00
     8   6     0.07   0.01   0.00     0.06   0.04  -0.00    -0.05  -0.01   0.00
     9   1    -0.11  -0.05  -0.00     0.51   0.20   0.00     0.00   0.02  -0.00
    10   6     0.06  -0.02   0.00     0.07  -0.02  -0.00     0.07  -0.04   0.00
    11   6    -0.04   0.07   0.00    -0.11   0.04   0.00     0.05   0.01  -0.00
    12   1    -0.22  -0.13   0.00    -0.42  -0.19   0.00     0.31   0.16  -0.00
    13   1     0.52  -0.31   0.00     0.29  -0.24  -0.00    -0.02   0.06   0.00
    14   7    -0.07   0.05  -0.00     0.07  -0.01   0.00     0.02   0.01   0.00
    15   7    -0.12  -0.02  -0.00     0.09  -0.00   0.00     0.02   0.01   0.00
    16   6     0.22  -0.03  -0.00    -0.14  -0.00   0.00    -0.04  -0.11  -0.00
    17   6     0.05  -0.02  -0.00    -0.03   0.03   0.00    -0.06  -0.01   0.00
    18   6     0.05   0.02   0.00    -0.03  -0.01  -0.00    -0.01   0.08   0.00
    19   6    -0.05   0.04  -0.00     0.03  -0.03  -0.00     0.10   0.05   0.00
    20   1    -0.07   0.07  -0.00     0.06  -0.04   0.00    -0.37   0.21  -0.00
    21   6    -0.05  -0.04  -0.00     0.02   0.03   0.00     0.01   0.01   0.00
    22   1     0.06   0.02  -0.00     0.05   0.03   0.00    -0.11   0.04  -0.00
    23   6    -0.02   0.01   0.00    -0.01  -0.01   0.00     0.20  -0.07  -0.01
    24   1    -0.37  -0.09   0.00     0.21   0.05  -0.00    -0.30  -0.13  -0.00
    25   1    -0.37   0.18   0.00     0.26  -0.13  -0.00     0.03   0.01  -0.00
    26   7     0.01  -0.00  -0.00     0.01   0.00   0.00    -0.10   0.02   0.01
    27   1     0.02  -0.00   0.02     0.00   0.00  -0.01    -0.25  -0.03  -0.04
    28   1    -0.01   0.01   0.02     0.03  -0.02  -0.00    -0.14   0.03  -0.01
    29   8    -0.04   0.03  -0.00    -0.02   0.04  -0.00    -0.01   0.02  -0.00
    30   8     0.03  -0.07   0.00     0.05  -0.08   0.00    -0.02  -0.06   0.00
    31   1     0.02   0.15  -0.00     0.04  -0.17   0.00    -0.02   0.59  -0.00
    32  16    -0.00   0.01  -0.00    -0.01   0.01  -0.00    -0.01   0.00   0.00
    33   8    -0.00  -0.00   0.00     0.00  -0.00   0.00     0.00   0.00  -0.00
    34   8    -0.00  -0.01   0.00     0.00  -0.01   0.00    -0.00   0.00   0.00
    35   8    -0.00  -0.00  -0.00     0.00  -0.00  -0.00     0.00   0.00   0.00
    36  16     0.01  -0.01   0.00    -0.00  -0.00  -0.00    -0.01  -0.00  -0.00
    37   8    -0.00   0.00  -0.00     0.00   0.00   0.00     0.00  -0.00   0.00
    38   8    -0.01   0.00  -0.00     0.00  -0.01   0.00     0.00   0.00   0.00
    39   8    -0.00   0.00   0.00     0.00   0.00  -0.00     0.00  -0.00  -0.00
    40   1     0.04   0.12  -0.00    -0.04  -0.14   0.00     0.01  -0.04   0.00
                     85                     86                     87
                      A                      A                      A
 Frequencies --   1336.1297              1350.5054              1364.3587
 Red. masses --      2.3599                 1.6833                 3.3984
 Frc consts  --      2.4823                 1.8089                 3.7272
 IR Inten    --    248.0952                19.6110                 6.0469
  Atom  AN      X      Y      Z        X      Y      Z        X      Y      Z
     1   6     0.07   0.06  -0.00    -0.04  -0.02  -0.00     0.07   0.04  -0.00
     2   6    -0.04   0.03  -0.00     0.00  -0.04   0.00    -0.06  -0.10   0.00
     3   6    -0.04  -0.07   0.00     0.02   0.02  -0.00     0.06   0.02   0.00
     4   6     0.03   0.03   0.00    -0.01  -0.02   0.00    -0.00  -0.01   0.00
     5   6    -0.01  -0.01  -0.00    -0.00   0.00  -0.00    -0.05  -0.02  -0.00
     6   6    -0.03  -0.03  -0.00     0.02   0.02   0.00     0.01   0.04  -0.00
     7   6     0.08  -0.01   0.00    -0.03   0.03  -0.00    -0.05   0.02  -0.00
     8   6     0.06   0.02  -0.00    -0.03  -0.01   0.00    -0.04  -0.02   0.00
     9   1     0.02  -0.00   0.00     0.04   0.03   0.00     0.27   0.14   0.00
    10   6    -0.06   0.04  -0.00     0.03  -0.02   0.00     0.04   0.02  -0.00
    11   6    -0.06  -0.01  -0.00     0.02   0.00  -0.00     0.02  -0.01   0.00
    12   1    -0.35  -0.17   0.00     0.15   0.08  -0.00     0.10   0.04  -0.00
    13   1     0.03  -0.08  -0.00    -0.04   0.04   0.00    -0.01   0.02   0.00
    14   7    -0.03  -0.01   0.00     0.06  -0.00   0.00    -0.00   0.00   0.00
    15   7     0.01  -0.00   0.00    -0.04  -0.02  -0.00     0.02  -0.02  -0.00
    16   6    -0.02   0.03  -0.00     0.02   0.16   0.00    -0.02   0.14   0.00
    17   6    -0.05  -0.05   0.00    -0.03  -0.02   0.00     0.12  -0.12  -0.00
    18   6    -0.02   0.06   0.00     0.01   0.00   0.00    -0.17  -0.06  -0.00
    19   6     0.05   0.02   0.00    -0.05  -0.04   0.00    -0.08  -0.06  -0.00
    20   1    -0.17   0.02  -0.00     0.35  -0.30  -0.00    -0.32   0.19   0.00
    21   6     0.05  -0.04   0.00     0.06  -0.07  -0.00     0.11  -0.07   0.00
    22   1    -0.35  -0.08  -0.00    -0.45  -0.20  -0.00     0.27   0.13  -0.00
    23   6     0.21  -0.03  -0.01     0.04  -0.01  -0.00     0.08   0.23  -0.00
    24   1    -0.12  -0.07  -0.00     0.36   0.13  -0.00    -0.22  -0.12   0.00
    25   1    -0.23   0.17  -0.00    -0.43   0.28   0.00     0.18  -0.12  -0.01
    26   7    -0.11   0.01   0.01    -0.02   0.02   0.00    -0.03  -0.06   0.00
    27   1    -0.23  -0.02  -0.02    -0.09  -0.01  -0.00     0.27   0.06   0.06
    28   1    -0.19   0.05  -0.02     0.01  -0.01   0.00    -0.36   0.15  -0.07
    29   8     0.01  -0.03   0.00    -0.00   0.02  -0.00    -0.03   0.01  -0.00
    30   8     0.02   0.05  -0.00    -0.00  -0.03   0.00     0.01  -0.02   0.00
    31   1     0.02  -0.60   0.00    -0.00   0.19  -0.00    -0.00   0.09  -0.00
    32  16     0.01  -0.00  -0.00    -0.00   0.00   0.00    -0.00  -0.00   0.00
    33   8    -0.00  -0.00   0.00     0.00   0.00  -0.00    -0.00   0.00  -0.00
    34   8     0.00  -0.00   0.00    -0.00   0.00   0.00     0.00   0.00  -0.00
    35   8    -0.00  -0.00  -0.00     0.00   0.00   0.00    -0.00   0.00   0.00
    36  16     0.00   0.00   0.00    -0.00  -0.00   0.00    -0.00  -0.00  -0.00
    37   8    -0.00  -0.00  -0.00     0.00   0.00   0.00     0.00   0.00   0.00
    38   8     0.00  -0.00   0.00    -0.00   0.00   0.00     0.00  -0.00   0.00
    39   8    -0.00  -0.00   0.00     0.00   0.00  -0.00     0.00   0.00  -0.00
    40   1    -0.01   0.06  -0.00    -0.00  -0.02   0.00     0.01   0.30  -0.00
                     88                     89                     90
                      A                      A                      A
 Frequencies --   1371.7522              1411.1051              1421.6116
 Red. masses --      3.0197                 7.6845                 5.2914
 Frc consts  --      3.3479                 9.0154                 6.3006
 IR Inten    --     13.5612               299.3336                74.5581
  Atom  AN      X      Y      Z        X      Y      Z        X      Y      Z
     1   6     0.19   0.09   0.00    -0.05   0.07  -0.00    -0.03  -0.18   0.00
     2   6    -0.10  -0.17   0.00     0.24  -0.31   0.00     0.16  -0.03   0.00
     3   6     0.09   0.04   0.00    -0.07  -0.02  -0.00    -0.15   0.27  -0.00
     4   6     0.00  -0.00  -0.00    -0.03   0.41  -0.00     0.08  -0.20   0.00
     5   6    -0.10  -0.05  -0.00     0.06  -0.22   0.00     0.04  -0.01   0.00
     6   6     0.01   0.07  -0.00    -0.15   0.09  -0.00    -0.11   0.15  -0.00
     7   6    -0.06  -0.00  -0.00     0.04  -0.25   0.00    -0.05  -0.18   0.00
     8   6    -0.03  -0.04   0.00     0.13   0.00   0.00    -0.03  -0.08   0.00
     9   1     0.47   0.24   0.00    -0.01  -0.29   0.00     0.46   0.20   0.00
    10   6     0.04   0.06  -0.00    -0.14  -0.10   0.00    -0.02   0.25  -0.00
    11   6     0.03  -0.02   0.00     0.03   0.07  -0.00     0.12  -0.11   0.00
    12   1     0.06  -0.01  -0.00     0.19   0.03  -0.00    -0.35  -0.24   0.00
    13   1     0.03  -0.02   0.00     0.15  -0.01   0.00     0.00  -0.04  -0.00
    14   7    -0.09  -0.01  -0.00    -0.00   0.05   0.00     0.03   0.01   0.00
    15   7     0.07   0.00  -0.00     0.09  -0.06   0.00    -0.03   0.00  -0.00
    16   6    -0.04  -0.06  -0.00    -0.05   0.01   0.00     0.01   0.00   0.00
    17   6    -0.06   0.06   0.00    -0.02   0.00   0.00     0.00  -0.01  -0.00
    18   6     0.07   0.02   0.00    -0.03   0.00   0.00    -0.01   0.00   0.00
    19   6     0.04   0.02   0.00     0.00  -0.01   0.00    -0.00  -0.00   0.00
    20   1     0.15  -0.09  -0.00     0.02  -0.03  -0.00    -0.01  -0.00  -0.00
    21   6    -0.04   0.04  -0.00     0.02   0.00   0.00     0.01  -0.01   0.00
    22   1    -0.11  -0.06   0.00    -0.00   0.01  -0.00    -0.01   0.00  -0.00
    23   6    -0.03  -0.11   0.00     0.04  -0.01  -0.00     0.00   0.01   0.00
    24   1     0.15   0.07  -0.00     0.06   0.01  -0.00    -0.02  -0.01   0.00
    25   1    -0.04   0.04   0.00     0.01   0.02  -0.00    -0.04   0.03   0.00
    26   7     0.01   0.03  -0.00    -0.02   0.00   0.00    -0.00  -0.00  -0.00
    27   1    -0.12  -0.03  -0.03    -0.04  -0.00  -0.00    -0.00  -0.00   0.01
    28   1     0.16  -0.07   0.03    -0.03   0.01  -0.00    -0.01   0.01   0.00
    29   8    -0.06  -0.01  -0.00    -0.08   0.15  -0.00    -0.00   0.05  -0.00
    30   8     0.01  -0.00   0.00    -0.05   0.07  -0.00    -0.01   0.08  -0.00
    31   1     0.00  -0.02   0.00    -0.05   0.43  -0.00    -0.02  -0.39   0.00
    32  16    -0.00  -0.00   0.00     0.01   0.00   0.00    -0.00  -0.01  -0.00
    33   8    -0.00   0.00   0.00    -0.00  -0.00   0.00    -0.00   0.00   0.00
    34   8     0.00   0.00  -0.00    -0.00   0.01  -0.00     0.01  -0.00   0.00
    35   8    -0.00   0.00  -0.00     0.00  -0.00  -0.00    -0.00   0.00  -0.00
    36  16    -0.00  -0.00   0.00     0.01  -0.01   0.00    -0.00  -0.00  -0.00
    37   8     0.00   0.00   0.00     0.00   0.00   0.00     0.00   0.00   0.00
    38   8     0.00  -0.00   0.00    -0.00  -0.00  -0.00     0.00  -0.01   0.00
    39   8     0.00   0.00  -0.00     0.00   0.00  -0.00     0.00   0.00  -0.00
    40   1     0.03   0.64  -0.00     0.02  -0.27   0.00     0.00  -0.18   0.00
                     91                     92                     93
                      A                      A                      A
 Frequencies --   1454.4976              1464.0583              1492.8905
 Red. masses --      5.0308                 2.5258                 3.4499
 Frc consts  --      6.2707                 3.1898                 4.5301
 IR Inten    --     17.0183               156.6445                66.4408
  Atom  AN      X      Y      Z        X      Y      Z        X      Y      Z
     1   6     0.06   0.15  -0.00     0.07  -0.09   0.00     0.03  -0.03   0.00
     2   6     0.09  -0.08   0.00    -0.05   0.07  -0.00    -0.03  -0.02  -0.00
     3   6    -0.23  -0.03  -0.00    -0.02   0.02  -0.00    -0.00  -0.01   0.00
     4   6     0.27  -0.04   0.00     0.11  -0.04   0.00     0.03   0.02   0.00
     5   6     0.08   0.01   0.00     0.06  -0.03   0.00    -0.04  -0.03  -0.00
     6   6    -0.14  -0.08  -0.00    -0.15   0.07  -0.00    -0.02   0.05  -0.00
     7   6    -0.15   0.20  -0.00     0.11   0.03   0.00     0.03   0.02   0.00
     8   6    -0.18   0.04  -0.00     0.05   0.12  -0.00     0.02   0.02  -0.00
     9   1    -0.03  -0.05  -0.00     0.16   0.01   0.00     0.14   0.05   0.00
    10   6    -0.00  -0.14   0.00    -0.12  -0.10   0.00    -0.04  -0.02  -0.00
    11   6     0.16   0.00   0.00     0.01  -0.03   0.00     0.01  -0.02   0.00
    12   1     0.27   0.28  -0.00    -0.33  -0.04   0.00    -0.07  -0.01   0.00
    13   1    -0.30   0.35  -0.00    -0.27   0.15  -0.00    -0.09   0.05  -0.00
    14   7    -0.05   0.01  -0.00    -0.01   0.02  -0.00     0.06  -0.08   0.00
    15   7     0.04  -0.03   0.00     0.01  -0.02   0.00    -0.08   0.06  -0.00
    16   6    -0.01  -0.00   0.00    -0.00  -0.01  -0.00     0.03   0.14   0.00
    17   6    -0.01  -0.00  -0.00     0.03   0.01  -0.00    -0.18  -0.03   0.00
    18   6     0.01  -0.00  -0.00    -0.02   0.01   0.00     0.15  -0.06  -0.00
    19   6     0.02   0.01   0.00    -0.04  -0.00  -0.00     0.22  -0.02  -0.00
    20   1    -0.01  -0.01   0.00    -0.01   0.04   0.00     0.13  -0.28  -0.00
    21   6    -0.02   0.01   0.00     0.03  -0.01  -0.00    -0.18   0.01   0.00
    22   1     0.01  -0.01   0.00    -0.01   0.02   0.00    -0.14  -0.21  -0.00
    23   6     0.01  -0.01  -0.00    -0.00  -0.01   0.00    -0.01   0.14   0.00
    24   1    -0.04  -0.02   0.00     0.09   0.06  -0.00    -0.43  -0.33   0.00
    25   1     0.04  -0.03  -0.00    -0.06   0.06   0.00     0.26  -0.33  -0.00
    26   7    -0.00  -0.00   0.00     0.00   0.01   0.00    -0.00  -0.06  -0.00
    27   1    -0.00  -0.00  -0.00    -0.02  -0.00  -0.01     0.21   0.03   0.04
    28   1    -0.01   0.00   0.00     0.03  -0.01   0.00    -0.20   0.07  -0.02
    29   8    -0.01   0.03  -0.00    -0.00  -0.05   0.00     0.01   0.01  -0.00
    30   8     0.05  -0.04   0.00    -0.04  -0.04   0.00    -0.01  -0.01   0.00
    31   1     0.03  -0.44   0.00    -0.03   0.66  -0.00    -0.01   0.16  -0.00
    32  16    -0.00   0.01  -0.00     0.01   0.00  -0.00     0.00   0.00  -0.00
    33   8     0.00  -0.00  -0.00     0.00  -0.00   0.00    -0.00  -0.00   0.00
    34   8    -0.00   0.00  -0.00    -0.00   0.00  -0.00    -0.00   0.00  -0.00
    35   8     0.00   0.00   0.00     0.00  -0.00  -0.00    -0.00  -0.00  -0.00
    36  16     0.01   0.01   0.00     0.01  -0.00   0.00     0.00  -0.00   0.00
    37   8    -0.00   0.00  -0.00    -0.00   0.00   0.00     0.00   0.00   0.00
    38   8     0.00  -0.00   0.00    -0.00  -0.00   0.00    -0.00  -0.00   0.00
    39   8    -0.00   0.00   0.00    -0.00   0.00  -0.00     0.00   0.00  -0.00
    40   1    -0.00  -0.27   0.00     0.04   0.41  -0.00    -0.00  -0.02   0.00
                     94                     95                     96
                      A                      A                      A
 Frequencies --   1533.9505              1545.3799              1549.3996
 Red. masses --      2.0908                 5.3633                 4.0591
 Frc consts  --      2.8986                 7.5466                 5.7412
 IR Inten    --     40.4959                25.0083                49.7871
  Atom  AN      X      Y      Z        X      Y      Z        X      Y      Z
     1   6    -0.06   0.05  -0.00     0.06  -0.19   0.00    -0.00   0.09  -0.00
     2   6     0.08   0.02   0.00    -0.04   0.11  -0.00     0.07  -0.07   0.00
     3   6     0.01   0.07  -0.00     0.07  -0.03   0.00    -0.10  -0.06   0.00
     4   6    -0.01  -0.06   0.00     0.15   0.14   0.00    -0.04   0.01  -0.00
     5   6     0.12   0.05   0.00    -0.10  -0.12  -0.00    -0.07   0.01  -0.00
     6   6    -0.07  -0.06  -0.00    -0.06   0.15  -0.00     0.08  -0.04   0.00
     7   6    -0.03  -0.09   0.00    -0.11  -0.08   0.00     0.06   0.10  -0.00
     8   6    -0.03   0.01  -0.00    -0.09   0.03  -0.00     0.07  -0.01   0.00
     9   1    -0.21  -0.12  -0.00     0.33   0.08   0.00     0.02   0.06  -0.00
    10   6     0.04  -0.05   0.00     0.05  -0.18   0.00    -0.07   0.10  -0.00
    11   6    -0.05   0.08  -0.00    -0.05   0.14  -0.00     0.08  -0.12   0.00
    12   1     0.06   0.05  -0.00     0.25   0.20  -0.00    -0.14  -0.11   0.00
    13   1     0.21  -0.10   0.00     0.26  -0.06   0.00    -0.28   0.13  -0.00
    14   7     0.03  -0.04   0.00     0.09  -0.19   0.00     0.06  -0.16   0.00
    15   7     0.02   0.01  -0.00    -0.14   0.22  -0.00    -0.09   0.17  -0.00
    16   6     0.04   0.02  -0.00     0.05  -0.05  -0.00     0.14  -0.04  -0.00
    17   6    -0.06   0.04   0.00     0.03   0.00   0.00    -0.05   0.08   0.00
    18   6    -0.03  -0.03  -0.00    -0.09   0.01   0.00    -0.16  -0.07   0.00
    19   6     0.01  -0.04   0.00    -0.02   0.02   0.00    -0.06  -0.03   0.00
    20   1     0.17  -0.13  -0.00    -0.03   0.06   0.00     0.24  -0.13  -0.00
    21   6    -0.02   0.03   0.00     0.07   0.01  -0.00     0.01   0.09   0.00
    22   1     0.12   0.03  -0.00     0.15   0.12  -0.00     0.44   0.20  -0.00
    23   6     0.06   0.02  -0.00    -0.02  -0.06   0.00     0.12  -0.08  -0.00
    24   1     0.11  -0.00  -0.00     0.02   0.05  -0.00     0.30   0.12  -0.00
    25   1     0.14  -0.09  -0.00    -0.07   0.12   0.00     0.25  -0.06  -0.00
    26   7    -0.02  -0.01   0.00    -0.00   0.02  -0.00    -0.04   0.02   0.00
    27   1    -0.01  -0.00   0.00    -0.08  -0.01   0.00    -0.18  -0.04  -0.01
    28   1    -0.06   0.02  -0.01     0.06  -0.02   0.02    -0.04   0.02   0.01
    29   8    -0.05  -0.06   0.00     0.02  -0.00   0.00    -0.02   0.02  -0.00
    30   8     0.01   0.02  -0.00     0.03   0.03  -0.00    -0.02  -0.03   0.00
    31   1     0.01  -0.13   0.00     0.04  -0.51   0.00    -0.03   0.31  -0.00
    32  16    -0.00   0.00   0.00    -0.00   0.00   0.00     0.00  -0.00  -0.00
    33   8     0.00  -0.00  -0.00     0.00  -0.00  -0.00    -0.00   0.00   0.00
    34   8    -0.00  -0.00   0.00    -0.00   0.00  -0.00     0.00  -0.00  -0.00
    35   8     0.00  -0.00   0.00     0.00  -0.00   0.00    -0.00   0.00  -0.00
    36  16     0.00   0.00   0.00     0.00  -0.01   0.00    -0.00  -0.00  -0.00
    37   8    -0.00   0.00  -0.00     0.00   0.00   0.00    -0.00  -0.00  -0.00
    38   8    -0.00   0.00  -0.00     0.00  -0.00   0.00    -0.00   0.00   0.00
    39   8    -0.00   0.00   0.00     0.00   0.00  -0.00    -0.00  -0.00   0.00
    40   1     0.02   0.82  -0.00    -0.06  -0.03   0.00     0.02  -0.00  -0.00
                     97                     98                     99
                      A                      A                      A
 Frequencies --   1570.2236              1639.1838              1650.9336
 Red. masses --      3.4621                 5.8279                 6.1134
 Frc consts  --      5.0294                 9.2260                 9.8173
 IR Inten    --    138.8618               370.7321               177.0658
  Atom  AN      X      Y      Z        X      Y      Z        X      Y      Z
     1   6     0.05  -0.09   0.00    -0.03  -0.09   0.00     0.01  -0.14   0.00
     2   6    -0.09   0.04  -0.00     0.10   0.11  -0.00     0.04   0.14  -0.00
     3   6     0.06   0.01   0.00    -0.02  -0.14   0.00     0.04  -0.24   0.00
     4   6     0.03   0.01   0.00    -0.01   0.13  -0.00    -0.06   0.21  -0.00
     5   6    -0.02  -0.03  -0.00    -0.03  -0.04  -0.00     0.16  -0.03   0.00
     6   6    -0.01   0.05  -0.00     0.01   0.04  -0.00    -0.18   0.08  -0.00
     7   6    -0.02  -0.02   0.00    -0.06   0.07  -0.00    -0.03   0.12  -0.00
     8   6    -0.03   0.01  -0.00    -0.02  -0.06   0.00    -0.11  -0.18   0.00
     9   1     0.09   0.03   0.00     0.03  -0.02   0.00    -0.13  -0.20  -0.00
    10   6     0.02  -0.04   0.00    -0.01   0.08  -0.00     0.06   0.24  -0.00
    11   6    -0.03   0.04  -0.00     0.09  -0.07   0.00     0.08  -0.13   0.00
    12   1     0.05   0.05  -0.00     0.10  -0.01  -0.00     0.29  -0.01  -0.00
    13   1     0.08  -0.04   0.00    -0.11   0.07  -0.00    -0.13   0.01  -0.00
    14   7    -0.08   0.17  -0.00    -0.01  -0.01   0.00     0.01   0.03  -0.00
    15   7     0.00  -0.15   0.00     0.01   0.03   0.00    -0.01  -0.05   0.00
    16   6     0.15   0.02  -0.00    -0.05  -0.27  -0.00     0.00   0.17   0.00
    17   6    -0.07   0.07   0.00    -0.01   0.16   0.00     0.06  -0.11  -0.00
    18   6    -0.04  -0.08   0.00     0.18   0.16   0.00    -0.02  -0.08  -0.00
    19   6    -0.09  -0.07   0.00    -0.16  -0.17  -0.00     0.02   0.08   0.00
    20   1     0.29  -0.18  -0.00     0.21   0.02  -0.00    -0.15   0.03   0.00
    21   6    -0.12   0.09   0.00    -0.05  -0.14  -0.00    -0.05   0.09   0.00
    22   1     0.26   0.04  -0.00    -0.29  -0.04  -0.00     0.07  -0.05   0.00
    23   6     0.18  -0.01  -0.00     0.09   0.30  -0.00    -0.00  -0.15   0.00
    24   1     0.34   0.11  -0.00     0.32   0.02  -0.00    -0.10   0.04   0.00
    25   1     0.38  -0.25  -0.00    -0.12  -0.11  -0.00     0.13  -0.03  -0.00
    26   7    -0.04  -0.00   0.00     0.00  -0.05   0.00    -0.01   0.02   0.00
    27   1    -0.13  -0.04  -0.01     0.11  -0.01   0.04     0.01   0.05  -0.05
    28   1    -0.15   0.07  -0.01    -0.27   0.14  -0.03     0.18  -0.12  -0.02
    29   8     0.04   0.01  -0.00    -0.03  -0.03   0.00    -0.02  -0.05   0.00
    30   8     0.01   0.01  -0.00     0.01  -0.00   0.00     0.01  -0.01   0.00
    31   1     0.02  -0.13   0.00     0.00  -0.12   0.00    -0.00  -0.04   0.00
    32  16    -0.00   0.00   0.00     0.00  -0.00  -0.00    -0.00  -0.01   0.00
    33   8     0.00  -0.00  -0.00    -0.00   0.00   0.00    -0.00   0.00   0.00
    34   8    -0.00   0.00  -0.00     0.00   0.00   0.00     0.00   0.00   0.00
    35   8     0.00  -0.00   0.00    -0.00   0.00  -0.00    -0.00   0.00  -0.00
    36  16    -0.00  -0.00  -0.00    -0.00  -0.00   0.00     0.00  -0.00   0.00
    37   8     0.00  -0.00   0.00     0.00   0.00   0.00     0.00   0.00   0.00
    38   8     0.00  -0.00   0.00    -0.00   0.00   0.00    -0.00  -0.00  -0.00
    39   8     0.00  -0.00  -0.00     0.00   0.00  -0.00     0.00   0.00  -0.00
    40   1     0.00  -0.43   0.00    -0.02   0.39  -0.00    -0.05   0.52  -0.00
                    100                    101                    102
                      A                      A                      A
 Frequencies --   1657.1717              1664.7422              1678.0233
 Red. masses --      1.2188                 4.8354                 5.4821
 Frc consts  --      1.9721                 7.8954                 9.0947
 IR Inten    --     87.9087               798.0436               730.5618
  Atom  AN      X      Y      Z        X      Y      Z        X      Y      Z
     1   6     0.00  -0.00   0.00     0.10   0.04   0.00    -0.06  -0.09   0.00
     2   6    -0.00   0.00  -0.00    -0.14  -0.07  -0.00     0.08   0.12  -0.00
     3   6    -0.00  -0.00  -0.00     0.04  -0.01   0.00     0.03  -0.05   0.00
     4   6     0.00   0.00   0.00     0.00   0.00  -0.00    -0.05   0.05  -0.00
     5   6    -0.00  -0.00  -0.00     0.19   0.03   0.00    -0.10  -0.03  -0.00
     6   6     0.00   0.00   0.00    -0.19   0.01  -0.00     0.10   0.01   0.00
     7   6    -0.00   0.00   0.00     0.14   0.01   0.00    -0.18   0.03  -0.00
     8   6    -0.00   0.00  -0.00    -0.13  -0.11  -0.00     0.11   0.06   0.00
     9   1     0.00   0.00   0.00    -0.14  -0.14  -0.00     0.05   0.06   0.00
    10   6    -0.00  -0.00   0.00     0.10   0.12  -0.00    -0.09  -0.05   0.00
    11   6     0.00   0.00   0.00    -0.11  -0.01  -0.00     0.15  -0.04   0.00
    12   1     0.00   0.00  -0.00     0.18   0.03  -0.00    -0.12  -0.04   0.00
    13   1    -0.00   0.00  -0.00     0.07  -0.15   0.00    -0.12   0.17  -0.00
    14   7    -0.01   0.01  -0.00    -0.01  -0.02   0.00    -0.05   0.12  -0.00
    15   7     0.00  -0.01  -0.00    -0.00   0.04  -0.00     0.06  -0.12   0.00
    16   6     0.02  -0.02  -0.00     0.07  -0.13  -0.00     0.10  -0.00   0.00
    17   6    -0.04   0.02  -0.00    -0.16   0.12   0.00    -0.20   0.08   0.00
    18   6    -0.03   0.01  -0.00    -0.12   0.03   0.00    -0.20  -0.03   0.00
    19   6     0.02  -0.01  -0.00     0.12  -0.04   0.00     0.22   0.02   0.00
    20   1     0.04  -0.04   0.00     0.20  -0.14  -0.00     0.17  -0.20  -0.00
    21   6     0.03  -0.02  -0.00     0.16  -0.09  -0.00     0.21  -0.06  -0.00
    22   1     0.02   0.03   0.00     0.09   0.14  -0.00     0.17   0.14  -0.00
    23   6     0.02   0.02   0.01    -0.09   0.09  -0.00    -0.15   0.02  -0.00
    24   1    -0.01  -0.02   0.00    -0.05  -0.13  -0.00    -0.18  -0.17   0.00
    25   1    -0.04   0.02   0.00    -0.17   0.15   0.00    -0.14   0.20   0.00
    26   7    -0.10   0.01   0.01     0.03  -0.02  -0.01     0.05  -0.01  -0.01
    27   1     0.60   0.36  -0.15    -0.11  -0.10   0.08    -0.17  -0.12   0.09
    28   1     0.49  -0.45  -0.16    -0.19   0.15   0.07    -0.15   0.15   0.09
    29   8     0.00   0.00   0.00     0.03   0.03  -0.00    -0.02  -0.04   0.00
    30   8     0.00  -0.00   0.00    -0.02  -0.01  -0.00     0.03   0.00   0.00
    31   1     0.00  -0.00   0.00    -0.01   0.23  -0.00     0.02  -0.28   0.00
    32  16     0.00   0.00  -0.00    -0.00  -0.00   0.00     0.00   0.00  -0.00
    33   8    -0.00  -0.00   0.00    -0.00   0.00  -0.00    -0.00  -0.00   0.00
    34   8    -0.00   0.00  -0.00     0.00  -0.00   0.00    -0.00   0.00  -0.00
    35   8    -0.00  -0.00  -0.00    -0.00   0.00  -0.00    -0.00  -0.00  -0.00
    36  16    -0.00  -0.00  -0.00     0.01  -0.00   0.00    -0.00  -0.00  -0.00
    37   8     0.00  -0.00   0.00    -0.00   0.00  -0.00     0.00  -0.00   0.00
    38   8     0.00   0.00  -0.00    -0.00  -0.00  -0.00     0.00   0.00  -0.00
    39   8     0.00  -0.00  -0.00    -0.00   0.00   0.00     0.00  -0.00  -0.00
    40   1     0.00  -0.02   0.00     0.03  -0.50   0.00    -0.02   0.34  -0.00
                    103                    104                    105
                      A                      A                      A
 Frequencies --   1701.4129              2735.9690              3191.8644
 Red. masses --      6.1808                 1.0739                 1.0913
 Frc consts  --     10.5418                 4.7363                 6.5507
 IR Inten    --    313.1440               913.9665                29.1869
  Atom  AN      X      Y      Z        X      Y      Z        X      Y      Z
     1   6    -0.07  -0.04  -0.00    -0.01  -0.01  -0.00    -0.00  -0.00   0.00
     2   6     0.17   0.06   0.00    -0.01   0.02  -0.00    -0.00   0.00   0.00
     3   6    -0.23  -0.04  -0.00     0.00  -0.00   0.00     0.00  -0.00   0.00
     4   6     0.24   0.05   0.00     0.00   0.00  -0.00     0.00   0.00  -0.00
     5   6    -0.24  -0.06  -0.00    -0.00  -0.00  -0.00    -0.00   0.00  -0.00
     6   6     0.19  -0.01   0.00     0.00  -0.00   0.00     0.00  -0.00  -0.00
     7   6     0.29   0.01   0.00    -0.00   0.00  -0.00    -0.00   0.00  -0.00
     8   6    -0.20  -0.09  -0.00    -0.00  -0.00  -0.00    -0.00  -0.00   0.00
     9   1     0.23   0.18   0.00     0.00  -0.00  -0.00     0.00  -0.00  -0.00
    10   6     0.12   0.06   0.00    -0.00   0.00  -0.00    -0.00   0.00  -0.00
    11   6    -0.21   0.05  -0.00     0.00  -0.00   0.00     0.00  -0.00   0.00
    12   1     0.22   0.10  -0.00     0.00  -0.00   0.00    -0.00   0.00   0.00
    13   1     0.12  -0.21   0.00     0.00   0.00   0.00     0.00   0.00  -0.00
    14   7    -0.03   0.07  -0.00     0.01   0.00   0.00     0.00  -0.00  -0.00
    15   7     0.05  -0.08   0.00     0.00   0.01  -0.00    -0.00   0.00   0.00
    16   6     0.01   0.03   0.00    -0.00   0.00   0.00    -0.00   0.00  -0.00
    17   6    -0.04   0.00   0.00     0.00  -0.00  -0.00    -0.00  -0.01  -0.00
    18   6    -0.04  -0.02  -0.00     0.00  -0.00  -0.00    -0.00   0.01   0.00
    19   6     0.05   0.01   0.00     0.00  -0.00  -0.00    -0.00   0.00   0.00
    20   1     0.01  -0.04  -0.00    -0.01  -0.00   0.00     0.05   0.07   0.00
    21   6     0.03  -0.00  -0.00    -0.00   0.00   0.00    -0.05  -0.07  -0.00
    22   1     0.03   0.01  -0.00    -0.00  -0.00  -0.00     0.05  -0.12  -0.00
    23   6    -0.04  -0.01  -0.00    -0.00  -0.00  -0.00    -0.00   0.00   0.00
    24   1    -0.05  -0.03   0.00     0.00   0.00  -0.00     0.01  -0.04  -0.00
    25   1    -0.01   0.03   0.00     0.00  -0.00  -0.00     0.57   0.80   0.00
    26   7     0.01   0.00  -0.00     0.00   0.00   0.00     0.00  -0.00  -0.00
    27   1    -0.03  -0.02   0.01    -0.00  -0.00  -0.00     0.00   0.00   0.00
    28   1    -0.02   0.03   0.01     0.00   0.00  -0.00     0.00  -0.00   0.00
    29   8    -0.03  -0.03   0.00    -0.06  -0.01   0.00    -0.00  -0.00   0.00
    30   8    -0.04  -0.01  -0.00    -0.00   0.00  -0.00     0.00  -0.00   0.00
    31   1    -0.03   0.38  -0.00     0.04  -0.03   0.00    -0.00   0.00   0.00
    32  16    -0.01  -0.00   0.00    -0.00   0.00   0.00     0.00   0.00  -0.00
    33   8     0.00   0.00  -0.00     0.00  -0.00  -0.00    -0.00  -0.00   0.00
    34   8     0.00  -0.00   0.00     0.00  -0.00   0.00    -0.00   0.00  -0.00
    35   8     0.00   0.00   0.00     0.00  -0.00   0.00    -0.00  -0.00  -0.00
    36  16    -0.01   0.00  -0.00     0.00  -0.00   0.00     0.00  -0.00  -0.00
    37   8     0.00  -0.00   0.00    -0.00   0.00  -0.00    -0.00   0.00   0.00
    38   8     0.00   0.00   0.00    -0.00  -0.00  -0.00    -0.00   0.00  -0.00
    39   8     0.00  -0.00  -0.00    -0.00   0.00   0.00    -0.00   0.00  -0.00
    40   1     0.03   0.42  -0.00     0.99  -0.08   0.00     0.00   0.00   0.00
                    106                    107                    108
                      A                      A                      A
 Frequencies --   3193.6730              3209.0897              3219.9898
 Red. masses --      1.0890                 1.0959                 1.0918
 Frc consts  --      6.5441                 6.6496                 6.6695
 IR Inten    --     14.7330                14.1645                 3.5230
  Atom  AN      X      Y      Z        X      Y      Z        X      Y      Z
     1   6     0.00   0.00  -0.00     0.00   0.00  -0.00    -0.00  -0.00  -0.00
     2   6     0.00  -0.00  -0.00     0.00  -0.00   0.00     0.00  -0.00  -0.00
     3   6    -0.00   0.00  -0.00    -0.00   0.00  -0.00     0.00   0.00  -0.00
     4   6    -0.00  -0.00   0.00    -0.00  -0.00   0.00    -0.00   0.00  -0.00
     5   6     0.00  -0.00   0.00     0.00  -0.00   0.00    -0.00   0.00   0.00
     6   6    -0.00   0.00  -0.00    -0.00   0.00  -0.00    -0.00   0.00   0.00
     7   6     0.00  -0.00   0.00     0.00  -0.00   0.00     0.00  -0.00   0.00
     8   6     0.00   0.00  -0.00     0.00  -0.00   0.00     0.00  -0.00   0.00
     9   1    -0.00   0.00  -0.00    -0.00   0.00   0.00     0.00  -0.00   0.00
    10   6    -0.00  -0.00   0.00     0.00  -0.00   0.00    -0.00   0.00  -0.00
    11   6    -0.00   0.00  -0.00     0.00   0.00  -0.00    -0.05  -0.07  -0.00
    12   1     0.00  -0.00  -0.00    -0.00   0.00  -0.00    -0.01   0.03  -0.00
    13   1     0.00   0.00   0.00    -0.00  -0.00  -0.00     0.57   0.82   0.00
    14   7    -0.00   0.00  -0.00     0.00  -0.00   0.00     0.00  -0.00   0.00
    15   7     0.00  -0.00   0.00    -0.00  -0.00   0.00     0.00   0.00  -0.00
    16   6     0.00  -0.00  -0.00    -0.00   0.00   0.00    -0.00   0.00  -0.00
    17   6     0.03   0.04   0.00    -0.04  -0.06  -0.00    -0.00  -0.00  -0.00
    18   6    -0.00  -0.00  -0.00     0.00  -0.00  -0.00     0.00  -0.00  -0.00
    19   6     0.03  -0.07  -0.00     0.02  -0.05  -0.00     0.00  -0.00  -0.00
    20   1    -0.33  -0.45  -0.00     0.48   0.66   0.00     0.00   0.00   0.00
    21   6    -0.00  -0.01  -0.00     0.00   0.00   0.00    -0.00   0.00  -0.00
    22   1    -0.00   0.00   0.00    -0.00   0.01   0.00    -0.00   0.00   0.00
    23   6     0.00   0.00  -0.00     0.00   0.00  -0.00     0.00  -0.00   0.00
    24   1    -0.33   0.75   0.00    -0.23   0.51   0.00    -0.00   0.00   0.00
    25   1     0.05   0.07   0.00    -0.03  -0.04  -0.00    -0.00  -0.00  -0.00
    26   7     0.00  -0.00   0.00    -0.00  -0.00  -0.00    -0.00   0.00  -0.00
    27   1    -0.00  -0.00   0.00    -0.00   0.00   0.00    -0.00   0.00   0.00
    28   1    -0.00   0.00  -0.00    -0.00   0.00   0.00    -0.00  -0.00   0.00
    29   8     0.00   0.00  -0.00    -0.00   0.00  -0.00     0.00   0.00  -0.00
    30   8     0.00   0.00  -0.00    -0.00   0.00  -0.00    -0.00  -0.00  -0.00
    31   1    -0.00   0.00  -0.00     0.00  -0.00   0.00     0.00   0.00   0.00
    32  16    -0.00  -0.00  -0.00    -0.00   0.00  -0.00    -0.00  -0.00  -0.00
    33   8     0.00   0.00  -0.00     0.00   0.00  -0.00     0.00   0.00  -0.00
    34   8     0.00  -0.00  -0.00     0.00  -0.00   0.00     0.00  -0.00   0.00
    35   8     0.00   0.00   0.00     0.00   0.00   0.00    -0.00   0.00   0.00
    36  16    -0.00   0.00   0.00     0.00   0.00   0.00    -0.00  -0.00   0.00
    37   8     0.00  -0.00  -0.00    -0.00  -0.00  -0.00     0.00   0.00   0.00
    38   8     0.00  -0.00   0.00     0.00  -0.00   0.00    -0.00   0.00   0.00
    39   8     0.00  -0.00   0.00    -0.00  -0.00   0.00     0.00   0.00  -0.00
    40   1    -0.00   0.00   0.00     0.00  -0.00   0.00    -0.00   0.00  -0.00
                    109                    110                    111
                      A                      A                      A
 Frequencies --   3228.1838              3232.1859              3242.4303
 Red. masses --      1.0919                 1.0914                 1.0918
 Frc consts  --      6.7040                 6.7181                 6.7627
 IR Inten    --      1.4920                 6.1313                 3.2930
  Atom  AN      X      Y      Z        X      Y      Z        X      Y      Z
     1   6     0.00  -0.00   0.00    -0.00   0.00  -0.00    -0.00   0.00  -0.00
     2   6    -0.00  -0.00   0.00    -0.00  -0.00  -0.00     0.00   0.00   0.00
     3   6    -0.00   0.00   0.00    -0.00   0.00  -0.00     0.00   0.00  -0.00
     4   6    -0.00  -0.00  -0.00     0.00   0.00  -0.00    -0.00   0.00  -0.00
     5   6    -0.01   0.02  -0.00     0.04  -0.07   0.00    -0.00   0.00  -0.00
     6   6     0.00   0.00   0.00    -0.00  -0.00  -0.00     0.00  -0.00   0.00
     7   6     0.00  -0.00   0.00     0.00  -0.00   0.00    -0.00  -0.00   0.00
     8   6     0.03  -0.08   0.00     0.01  -0.02   0.00     0.00  -0.00   0.00
     9   1     0.11  -0.22   0.00    -0.43   0.87  -0.00     0.00  -0.00   0.00
    10   6     0.00   0.00   0.00     0.00   0.00   0.00    -0.00   0.00  -0.00
    11   6     0.00   0.00  -0.00     0.00   0.00  -0.00     0.00   0.00   0.00
    12   1    -0.41   0.87  -0.01    -0.11   0.22  -0.00    -0.00   0.00  -0.00
    13   1    -0.02  -0.03  -0.00    -0.00  -0.00  -0.00    -0.00  -0.00  -0.00
    14   7    -0.00   0.00  -0.00     0.00  -0.00   0.00     0.00   0.00   0.00
    15   7    -0.00  -0.00  -0.00    -0.00   0.00   0.00     0.00  -0.00  -0.00
    16   6     0.00  -0.00  -0.00     0.00  -0.00  -0.00     0.00   0.00   0.00
    17   6     0.00   0.00   0.00     0.00   0.00   0.00    -0.00  -0.00   0.00
    18   6    -0.00   0.00  -0.00     0.00  -0.00  -0.00     0.04  -0.08  -0.00
    19   6     0.00   0.00  -0.00    -0.00   0.00  -0.00    -0.00   0.00   0.00
    20   1    -0.00  -0.00  -0.00    -0.00  -0.00  -0.00     0.00   0.01   0.00
    21   6     0.00  -0.00  -0.00    -0.00  -0.00  -0.00    -0.01  -0.01  -0.00
    22   1     0.00  -0.00  -0.00    -0.00   0.00   0.00    -0.40   0.90   0.00
    23   6    -0.00   0.00  -0.00    -0.00  -0.00  -0.00    -0.00   0.00   0.00
    24   1     0.00  -0.00   0.00     0.00  -0.00  -0.00     0.01  -0.01  -0.00
    25   1    -0.00  -0.00  -0.00     0.00   0.00   0.00     0.08   0.10   0.00
    26   7     0.00  -0.00   0.00     0.00  -0.00   0.00     0.00  -0.00   0.00
    27   1     0.00  -0.00  -0.00     0.00  -0.00  -0.00     0.00  -0.00  -0.00
    28   1     0.00   0.00  -0.00     0.00   0.00  -0.00     0.00   0.00  -0.00
    29   8     0.00  -0.00   0.00    -0.00   0.00  -0.00    -0.00  -0.00   0.00
    30   8     0.00   0.00  -0.00    -0.00   0.00  -0.00     0.00  -0.00   0.00
    31   1    -0.00   0.00  -0.00     0.00  -0.00   0.00    -0.00   0.00   0.00
    32  16     0.00  -0.00   0.00     0.00  -0.00   0.00     0.00   0.00   0.00
    33   8    -0.00   0.00   0.00    -0.00   0.00   0.00    -0.00   0.00   0.00
    34   8     0.00   0.00  -0.00     0.00   0.00  -0.00    -0.00   0.00  -0.00
    35   8    -0.00   0.00  -0.00    -0.00   0.00  -0.00    -0.00   0.00  -0.00
    36  16    -0.00   0.00  -0.00     0.00  -0.00   0.00    -0.00   0.00  -0.00
    37   8    -0.00  -0.00   0.00     0.00   0.00   0.00     0.00  -0.00  -0.00
    38   8     0.00   0.00   0.00    -0.00  -0.00  -0.00     0.00  -0.00  -0.00
    39   8    -0.00  -0.00  -0.00     0.00   0.00  -0.00     0.00  -0.00   0.00
    40   1    -0.00  -0.00   0.00     0.00  -0.00   0.00     0.00   0.00  -0.00
                    112                    113                    114
                      A                      A                      A
 Frequencies --   3603.7547              3621.4716              3706.8513
 Red. masses --      1.0473                 1.0665                 1.1021
 Frc consts  --      8.0136                 8.2411                 8.9227
 IR Inten    --    248.6184               638.4678                61.9612
  Atom  AN      X      Y      Z        X      Y      Z        X      Y      Z
     1   6    -0.00  -0.00   0.00    -0.00   0.00  -0.00    -0.00  -0.00  -0.00
     2   6    -0.00   0.00  -0.00     0.00  -0.00   0.00    -0.00   0.00  -0.00
     3   6     0.00   0.00  -0.00    -0.00  -0.00   0.00     0.00  -0.00   0.00
     4   6     0.00   0.00   0.00     0.00  -0.00   0.00     0.00   0.00   0.00
     5   6    -0.00  -0.00  -0.00    -0.00   0.00  -0.00    -0.00  -0.00   0.00
     6   6     0.00  -0.00   0.00     0.00  -0.00   0.00     0.00  -0.00   0.00
     7   6    -0.00   0.00   0.00    -0.00   0.00  -0.00    -0.00   0.00  -0.00
     8   6    -0.00  -0.00  -0.00    -0.00  -0.00   0.00    -0.00  -0.00   0.00
     9   1    -0.00  -0.00  -0.00     0.00  -0.00   0.00    -0.00  -0.00  -0.00
    10   6    -0.00   0.00   0.00    -0.00   0.00  -0.00    -0.00   0.00   0.00
    11   6     0.00  -0.00  -0.00     0.00  -0.00   0.00     0.00  -0.00   0.00
    12   1    -0.00   0.00  -0.00    -0.00   0.00  -0.00    -0.00   0.00   0.00
    13   1    -0.00  -0.00   0.00    -0.00  -0.00  -0.00    -0.00  -0.00   0.00
    14   7    -0.00   0.00  -0.00    -0.00  -0.00  -0.00    -0.00   0.00   0.00
    15   7     0.00  -0.00  -0.00     0.00  -0.00   0.00     0.00  -0.00  -0.00
    16   6    -0.00  -0.00   0.00     0.00   0.00  -0.00    -0.00   0.00   0.00
    17   6     0.00  -0.00   0.00    -0.00   0.00   0.00     0.00   0.00   0.00
    18   6     0.00  -0.00   0.00    -0.00  -0.00   0.00    -0.00   0.00  -0.00
    19   6    -0.00  -0.00   0.00     0.00   0.00  -0.00     0.00   0.00   0.00
    20   1    -0.00  -0.00  -0.00    -0.00  -0.00  -0.00    -0.00   0.00  -0.00
    21   6    -0.00   0.00   0.00     0.00  -0.00  -0.00    -0.00   0.00  -0.00
    22   1    -0.00   0.00  -0.00    -0.00   0.00  -0.00     0.00   0.00   0.00
    23   6    -0.00   0.00  -0.00    -0.00   0.00  -0.00    -0.00  -0.00  -0.00
    24   1     0.00  -0.00  -0.00     0.00  -0.00  -0.00     0.00  -0.00  -0.00
    25   1    -0.00  -0.00  -0.00     0.00   0.00  -0.00    -0.00   0.00   0.00
    26   7     0.05  -0.00  -0.02     0.00  -0.00  -0.00    -0.01  -0.08  -0.00
    27   1    -0.27   0.63   0.17    -0.00   0.01   0.00    -0.28   0.62   0.19
    28   1    -0.39  -0.57   0.17    -0.00  -0.01   0.00     0.39   0.55  -0.19
    29   8     0.00  -0.00   0.00     0.00   0.00  -0.00     0.00  -0.00  -0.00
    30   8     0.00  -0.00   0.00    -0.06  -0.00  -0.00    -0.00  -0.00  -0.00
    31   1    -0.01   0.00  -0.00     1.00  -0.00   0.00     0.00   0.00   0.00
    32  16     0.00  -0.00   0.00    -0.00   0.00   0.00     0.00  -0.00   0.00
    33   8    -0.00  -0.00   0.00     0.00   0.00  -0.00     0.00  -0.00   0.00
    34   8    -0.00   0.00  -0.00     0.00  -0.00   0.00    -0.00  -0.00   0.00
    35   8    -0.00  -0.00  -0.00     0.00   0.00   0.00    -0.00  -0.00   0.00
    36  16    -0.00  -0.00  -0.00    -0.00  -0.00  -0.00     0.00  -0.00   0.00
    37   8     0.00   0.00   0.00     0.00   0.00   0.00    -0.00   0.00   0.00
    38   8    -0.00   0.00  -0.00    -0.00   0.00  -0.00    -0.00   0.00   0.00
    39   8     0.00   0.00  -0.00     0.00   0.00  -0.00    -0.00   0.00   0.00
    40   1     0.00   0.00   0.00    -0.04   0.01  -0.00     0.00  -0.00  -0.00

 -------------------
 - Thermochemistry -
 -------------------
 Temperature   298.150 Kelvin.  Pressure   1.00000 Atm.
 Atom     1 has atomic number  6 and mass  12.00000
 Atom     2 has atomic number  6 and mass  12.00000
 Atom     3 has atomic number  6 and mass  12.00000
 Atom     4 has atomic number  6 and mass  12.00000
 Atom     5 has atomic number  6 and mass  12.00000
 Atom     6 has atomic number  6 and mass  12.00000
 Atom     7 has atomic number  6 and mass  12.00000
 Atom     8 has atomic number  6 and mass  12.00000
 Atom     9 has atomic number  1 and mass   1.00783
 Atom    10 has atomic number  6 and mass  12.00000
 Atom    11 has atomic number  6 and mass  12.00000
 Atom    12 has atomic number  1 and mass   1.00783
 Atom    13 has atomic number  1 and mass   1.00783
 Atom    14 has atomic number  7 and mass  14.00307
 Atom    15 has atomic number  7 and mass  14.00307
 Atom    16 has atomic number  6 and mass  12.00000
 Atom    17 has atomic number  6 and mass  12.00000
 Atom    18 has atomic number  6 and mass  12.00000
 Atom    19 has atomic number  6 and mass  12.00000
 Atom    20 has atomic number  1 and mass   1.00783
 Atom    21 has atomic number  6 and mass  12.00000
 Atom    22 has atomic number  1 and mass   1.00783
 Atom    23 has atomic number  6 and mass  12.00000
 Atom    24 has atomic number  1 and mass   1.00783
 Atom    25 has atomic number  1 and mass   1.00783
 Atom    26 has atomic number  7 and mass  14.00307
 Atom    27 has atomic number  1 and mass   1.00783
 Atom    28 has atomic number  1 and mass   1.00783
 Atom    29 has atomic number  8 and mass  15.99491
 Atom    30 has atomic number  8 and mass  15.99491
 Atom    31 has atomic number  1 and mass   1.00783
 Atom    32 has atomic number 16 and mass  31.97207
 Atom    33 has atomic number  8 and mass  15.99491
 Atom    34 has atomic number  8 and mass  15.99491
 Atom    35 has atomic number  8 and mass  15.99491
 Atom    36 has atomic number 16 and mass  31.97207
 Atom    37 has atomic number  8 and mass  15.99491
 Atom    38 has atomic number  8 and mass  15.99491
 Atom    39 has atomic number  8 and mass  15.99491
 Atom    40 has atomic number  1 and mass   1.00783
 Molecular mass:   436.99876 amu.
 Principal axes and moments of inertia in atomic units:
                           1         2         3
     Eigenvalues --  6108.63435********************
           X            0.99997  -0.00753  -0.00050
           Y            0.00753   0.99997   0.00053
           Z            0.00050  -0.00053   1.00000
 This molecule is an asymmetric top.
 Rotational symmetry number  1.
 Warning -- assumption of classical behavior for rotation
           may cause significant error
 Rotational temperatures (Kelvin)      0.01418     0.00311     0.00260
 Rotational constants (GHZ):           0.29544     0.06470     0.05419
 Zero-point vibrational energy     708680.3 (Joules/Mol)
                                  169.37866 (Kcal/Mol)
 Warning -- explicit consideration of  44 degrees of freedom as
           vibrations may cause significant error
 Vibrational temperatures:     29.91    46.83    54.72    70.66    74.89
          (Kelvin)             79.76   112.86   137.05   144.42   171.40
                              210.37   228.50   237.47   295.71   306.79
                              339.42   356.33   366.46   390.31   432.22
                              470.54   494.36   494.47   527.67   544.60
                              554.62   590.57   607.29   626.76   651.81
                              655.28   694.06   721.74   727.97   731.73
                              732.43   752.82   789.66   809.01   826.88
                              832.38   869.49   874.43   892.10   911.03
                              931.40   935.70   946.53   953.42  1028.96
                             1054.25  1077.63  1134.89  1200.24  1208.72
                             1247.58  1248.17  1262.45  1284.84  1326.56
                             1337.32  1362.22  1385.50  1420.29  1453.09
                             1467.62  1471.26  1483.72  1492.31  1552.81
                             1604.49  1615.74  1659.82  1664.27  1667.87
                             1676.45  1680.69  1702.76  1709.95  1755.08
                             1787.89  1846.03  1862.13  1916.84  1922.39
                             1943.08  1963.01  1973.65  2030.27  2045.38
                             2092.70  2106.45  2147.94  2207.01  2223.46
                             2229.24  2259.20  2358.42  2375.33  2384.30
                             2395.19  2414.30  2447.95  3936.45  4592.38
                             4594.98  4617.16  4632.85  4644.64  4650.39
                             4665.13  5185.00  5210.49  5333.33
 
 Zero-point correction=                           0.269922 (Hartree/Particle)
 Thermal correction to Energy=                    0.294367
 Thermal correction to Enthalpy=                  0.295312
 Thermal correction to Gibbs Free Energy=         0.214018
 Sum of electronic and zero-point Energies=          -2178.556976
 Sum of electronic and thermal Energies=             -2178.532530
 Sum of electronic and thermal Enthalpies=           -2178.531586
 Sum of electronic and thermal Free Energies=        -2178.612879
 
                     E (Thermal)             CV                S
                      KCal/Mol        Cal/Mol-Kelvin    Cal/Mol-Kelvin
 Total                  184.718             94.425            171.096
 Electronic               0.000              0.000              0.000
 Translational            0.889              2.981             44.114
 Rotational               0.889              2.981             36.982
 Vibrational            182.941             88.463             90.000
 Vibration     1          0.593              1.986              6.558
 Vibration     2          0.594              1.983              5.668
 Vibration     3          0.594              1.982              5.359
 Vibration     4          0.595              1.978              4.853
 Vibration     5          0.596              1.977              4.738
 Vibration     6          0.596              1.975              4.613
 Vibration     7          0.600              1.964              3.930
 Vibration     8          0.603              1.953              3.549
 Vibration     9          0.604              1.949              3.447
 Vibration    10          0.609              1.933              3.114
 Vibration    11          0.617              1.907              2.721
 Vibration    12          0.621              1.893              2.564
 Vibration    13          0.623              1.885              2.491
 Vibration    14          0.640              1.832              2.083
 Vibration    15          0.644              1.821              2.016
 Vibration    16          0.655              1.786              1.834
 Vibration    17          0.661              1.767              1.747
 Vibration    18          0.665              1.755              1.698
 Vibration    19          0.675              1.726              1.588
 Vibration    20          0.693              1.673              1.415
 Vibration    21          0.711              1.621              1.275
 Vibration    22          0.722              1.588              1.195
 Vibration    23          0.722              1.588              1.195
 Vibration    24          0.740              1.541              1.093
 Vibration    25          0.749              1.516              1.045
 Vibration    26          0.754              1.501              1.018
 Vibration    27          0.775              1.448              0.925
 Vibration    28          0.784              1.422              0.885
 Vibration    29          0.796              1.393              0.840
 Vibration    30          0.812              1.354              0.787
 Vibration    31          0.814              1.349              0.779
 Vibration    32          0.839              1.289              0.704
 Vibration    33          0.857              1.246              0.654
 Vibration    34          0.861              1.237              0.643
 Vibration    35          0.864              1.231              0.637
 Vibration    36          0.864              1.230              0.636
 Vibration    37          0.878              1.199              0.603
 Vibration    38          0.904              1.142              0.547
 Vibration    39          0.918              1.113              0.519
 Vibration    40          0.931              1.086              0.495
 Vibration    41          0.935              1.078              0.488
 Vibration    42          0.963              1.023              0.442
 Vibration    43          0.967              1.015              0.437
 Vibration    44          0.980              0.990              0.416
                       Q            Log10(Q)             Ln(Q)
 Total Bot       0.361759D-98        -98.441581       -226.670117
 Total V=0       0.517423D+26         25.713846         59.208319
 Vib (Bot)       0.373611-114       -114.427580       -263.479240
 Vib (Bot)    1  0.996570D+01          0.998508          2.299149
 Vib (Bot)    2  0.635952D+01          0.803424          1.849952
 Vib (Bot)    3  0.544123D+01          0.735697          1.694004
 Vib (Bot)    4  0.420984D+01          0.624266          1.437425
 Vib (Bot)    5  0.397061D+01          0.598857          1.378920
 Vib (Bot)    6  0.372695D+01          0.571354          1.315591
 Vib (Bot)    7  0.262609D+01          0.419310          0.965496
 Vib (Bot)    8  0.215643D+01          0.333735          0.768452
 Vib (Bot)    9  0.204445D+01          0.310577          0.715130
 Vib (Bot)   10  0.171572D+01          0.234447          0.539834
 Vib (Bot)   11  0.138831D+01          0.142486          0.328086
 Vib (Bot)   12  0.127345D+01          0.104980          0.241726
 Vib (Bot)   13  0.122292D+01          0.087400          0.201245
 Vib (Bot)   14  0.968071D+00         -0.014093         -0.032450
 Vib (Bot)   15  0.930261D+00         -0.031395         -0.072290
 Vib (Bot)   16  0.832715D+00         -0.079504         -0.183064
 Vib (Bot)   17  0.788937D+00         -0.102958         -0.237068
 Vib (Bot)   18  0.764544D+00         -0.116598         -0.268476
 Vib (Bot)   19  0.711947D+00         -0.147552         -0.339752
 Vib (Bot)   20  0.632920D+00         -0.198651         -0.457411
 Vib (Bot)   21  0.572353D+00         -0.242336         -0.557999
 Vib (Bot)   22  0.539177D+00         -0.268269         -0.617712
 Vib (Bot)   23  0.539033D+00         -0.268385         -0.617979
 Vib (Bot)   24  0.497513D+00         -0.303195         -0.698133
 Vib (Bot)   25  0.478161D+00         -0.320426         -0.737809
 Vib (Bot)   26  0.467238D+00         -0.330462         -0.760916
 Vib (Bot)   27  0.430880D+00         -0.365643         -0.841925
 Vib (Bot)   28  0.415334D+00         -0.381602         -0.878671
 Vib (Bot)   29  0.398217D+00         -0.399880         -0.920758
 Vib (Bot)   30  0.377599D+00         -0.422969         -0.973923
 Vib (Bot)   31  0.374860D+00         -0.426130         -0.981202
 Vib (Bot)   32  0.345990D+00         -0.460937         -1.061346
 Vib (Bot)   33  0.327159D+00         -0.485241         -1.117310
 Vib (Bot)   34  0.323108D+00         -0.490652         -1.129768
 Vib (Bot)   35  0.320695D+00         -0.493907         -1.137263
 Vib (Bot)   36  0.320247D+00         -0.494515         -1.138664
 Vib (Bot)   37  0.307576D+00         -0.512047         -1.179033
 Vib (Bot)   38  0.286252D+00         -0.543251         -1.250882
 Vib (Bot)   39  0.275795D+00         -0.559414         -1.288098
 Vib (Bot)   40  0.266550D+00         -0.574222         -1.322194
 Vib (Bot)   41  0.263778D+00         -0.578761         -1.332646
 Vib (Bot)   42  0.245987D+00         -0.609088         -1.402478
 Vib (Bot)   43  0.243728D+00         -0.613095         -1.411704
 Vib (Bot)   44  0.235845D+00         -0.627373         -1.444580
 Vib (V=0)       0.534376D+10          9.727847         22.399196
 Vib (V=0)    1  0.104782D+02          1.020288          2.349300
 Vib (V=0)    2  0.687914D+01          0.837534          1.928494
 Vib (V=0)    3  0.596415D+01          0.775549          1.785767
 Vib (V=0)    4  0.473943D+01          0.675726          1.555917
 Vib (V=0)    5  0.450197D+01          0.653403          1.504515
 Vib (V=0)    6  0.426034D+01          0.629445          1.449350
 Vib (V=0)    7  0.317327D+01          0.501506          1.154761
 Vib (V=0)    8  0.271363D+01          0.433551          0.998288
 Vib (V=0)    9  0.260470D+01          0.415759          0.957319
 Vib (V=0)   10  0.228709D+01          0.359284          0.827282
 Vib (V=0)   11  0.197560D+01          0.295699          0.680873
 Vib (V=0)   12  0.186809D+01          0.271397          0.624915
 Vib (V=0)   13  0.182119D+01          0.260355          0.599490
 Vib (V=0)   14  0.158957D+01          0.201279          0.463463
 Vib (V=0)   15  0.155612D+01          0.192043          0.442195
 Vib (V=0)   16  0.147130D+01          0.167700          0.386143
 Vib (V=0)   17  0.143404D+01          0.156560          0.360492
 Vib (V=0)   18  0.141352D+01          0.150303          0.346086
 Vib (V=0)   19  0.136998D+01          0.136715          0.314797
 Vib (V=0)   20  0.130659D+01          0.116139          0.267421
 Vib (V=0)   21  0.125999D+01          0.100368          0.231106
 Vib (V=0)   22  0.123533D+01          0.091783          0.211339
 Vib (V=0)   23  0.123523D+01          0.091746          0.211253
 Vib (V=0)   24  0.120535D+01          0.081113          0.186771
 Vib (V=0)   25  0.119184D+01          0.076217          0.175495
 Vib (V=0)   26  0.118433D+01          0.073474          0.169180
 Vib (V=0)   27  0.116004D+01          0.064474          0.148458
 Vib (V=0)   28  0.115000D+01          0.060699          0.139764
 Vib (V=0)   29  0.113920D+01          0.056600          0.130326
 Vib (V=0)   30  0.112656D+01          0.051755          0.119171
 Vib (V=0)   31  0.112492D+01          0.051120          0.117709
 Vib (V=0)   32  0.110804D+01          0.044554          0.102590
 Vib (V=0)   33  0.109752D+01          0.040413          0.093055
 Vib (V=0)   34  0.109531D+01          0.039539          0.091041
 Vib (V=0)   35  0.109401D+01          0.039021          0.089848
 Vib (V=0)   36  0.109377D+01          0.038924          0.089627
 Vib (V=0)   37  0.108703D+01          0.036241          0.083448
 Vib (V=0)   38  0.107614D+01          0.031870          0.073383
 Vib (V=0)   39  0.107102D+01          0.029797          0.068611
 Vib (V=0)   40  0.106661D+01          0.028006          0.064487
 Vib (V=0)   41  0.106531D+01          0.027477          0.063269
 Vib (V=0)   42  0.105723D+01          0.024171          0.055656
 Vib (V=0)   43  0.105624D+01          0.023763          0.054716
 Vib (V=0)   44  0.105283D+01          0.022359          0.051483
 Electronic      0.100000D+01          0.000000          0.000000
 Translational   0.359066D+09          8.555174         19.699017
 Rotational      0.269665D+08          7.430825         17.110106
 ***** Axes restored to original set *****
 -------------------------------------------------------------------
 Center     Atomic                   Forces (Hartrees/Bohr)
 Number     Number              X              Y              Z
 -------------------------------------------------------------------
      1        6          -0.000004053   -0.000019598   -0.000002587
      2        6          -0.000000745    0.000008515    0.000000924
      3        6           0.000005997    0.000009708   -0.000000291
      4        6           0.000005386    0.000001943   -0.000000519
      5        6          -0.000007209   -0.000004097   -0.000001686
      6        6           0.000002258    0.000000946    0.000000096
      7        6           0.000004343   -0.000002346   -0.000001843
      8        6           0.000007068   -0.000001476   -0.000010622
      9        1          -0.000000100   -0.000001339   -0.000000993
     10        6           0.000001633   -0.000003255    0.000009753
     11        6           0.000002907   -0.000002911    0.000003072
     12        1          -0.000001088    0.000000159    0.000003281
     13        1          -0.000001685   -0.000000960    0.000001729
     14        7           0.000008675   -0.000022105   -0.000001211
     15        7           0.000015001    0.000012898    0.000005661
     16        6          -0.000003210   -0.000001751   -0.000001138
     17        6          -0.000014764   -0.000000450    0.000002598
     18        6          -0.000009515    0.000009121   -0.000000359
     19        6           0.000004873    0.000004842    0.000000246
     20        1           0.000001758    0.000002691    0.000000667
     21        6           0.000013115   -0.000001366    0.000002050
     22        1           0.000001510   -0.000003728   -0.000002601
     23        6          -0.000014309    0.000008695   -0.000006483
     24        1           0.000000068    0.000000069    0.000001272
     25        1           0.000001683   -0.000000805   -0.000000326
     26        7           0.000010138   -0.000005110    0.000018967
     27        1           0.000000566    0.000001861   -0.000004224
     28        1           0.000000548    0.000001603   -0.000006336
     29        8          -0.000012238   -0.000000346    0.000001700
     30        8          -0.000022624   -0.000003535    0.000000366
     31        1           0.000008701    0.000006486    0.000001260
     32       16          -0.000000953    0.000000792    0.000003505
     33        8           0.000005480    0.000000371   -0.000006185
     34        8          -0.000000780   -0.000003589   -0.000005921
     35        8          -0.000003241    0.000000102    0.000000317
     36       16          -0.000002218   -0.000004528    0.000001443
     37        8          -0.000001940    0.000007384   -0.000004276
     38        8           0.000000614   -0.000000795   -0.000000118
     39        8           0.000001919   -0.000002103    0.000000806
     40        1          -0.000003568    0.000008007   -0.000001995
 -------------------------------------------------------------------
 Cartesian Forces:  Max     0.000022624 RMS     0.000006289
 FormGI is forming the generalized inverse of G from B-inverse, IUseBI=4.

 GradGradGradGradGradGradGradGradGradGradGradGradGradGradGradGradGradGrad
 Berny optimization.
 Internal  Forces:  Max     0.000067215 RMS     0.000007652
 Search for a local minimum.
 Step number   1 out of a maximum of    2
 All quantities printed in internal units (Hartrees-Bohrs-Radians)
 Second derivative matrix not updated -- analytic derivatives used.
 ITU=  0
     Eigenvalues ---    0.00205   0.00527   0.00733   0.00759   0.00781
     Eigenvalues ---    0.00863   0.01136   0.01241   0.01376   0.01536
     Eigenvalues ---    0.01660   0.01706   0.01808   0.01854   0.01864
     Eigenvalues ---    0.01926   0.02021   0.02124   0.02196   0.02232
     Eigenvalues ---    0.02265   0.02316   0.02388   0.02441   0.02545
     Eigenvalues ---    0.02828   0.02875   0.02924   0.02958   0.03380
     Eigenvalues ---    0.03604   0.09667   0.11058   0.11155   0.11320
     Eigenvalues ---    0.11441   0.11830   0.11897   0.12257   0.12728
     Eigenvalues ---    0.13812   0.14177   0.14377   0.15931   0.16186
     Eigenvalues ---    0.16394   0.16632   0.16647   0.17165   0.17498
     Eigenvalues ---    0.17734   0.18191   0.19132   0.19397   0.19584
     Eigenvalues ---    0.19829   0.20023   0.20241   0.20603   0.20861
     Eigenvalues ---    0.21070   0.21250   0.21727   0.21937   0.22373
     Eigenvalues ---    0.23818   0.24552   0.25214   0.26391   0.27910
     Eigenvalues ---    0.29286   0.30461   0.30888   0.31944   0.33295
     Eigenvalues ---    0.34587   0.35852   0.35900   0.36253   0.36462
     Eigenvalues ---    0.36663   0.36859   0.36988   0.37168   0.38763
     Eigenvalues ---    0.38898   0.41546   0.42638   0.43022   0.44588
     Eigenvalues ---    0.44866   0.46059   0.46295   0.47141   0.47417
     Eigenvalues ---    0.47723   0.47782   0.48672   0.49502   0.50183
     Eigenvalues ---    0.50338   0.50520   0.50669   0.51161   0.52433
     Eigenvalues ---    0.53245   0.53795   0.54072   0.57299   0.57900
     Eigenvalues ---    0.63505   0.75234   0.76160   1.44678
 Angle between quadratic step and forces=  77.51 degrees.
 Linear search not attempted -- first point.
 Iteration  1 RMS(Cart)=  0.00030554 RMS(Int)=  0.00000007
 Iteration  2 RMS(Cart)=  0.00000007 RMS(Int)=  0.00000004
 Variable       Old X    -DE/DX   Delta X   Delta X   Delta X     New X
                                 (Linear)    (Quad)   (Total)
    R1        2.63638  -0.00000   0.00000  -0.00004  -0.00004   2.63634
    R2        2.70103   0.00000   0.00000   0.00002   0.00002   2.70105
    R3        2.63635   0.00002   0.00000   0.00001   0.00001   2.63636
    R4        2.69184  -0.00000   0.00000  -0.00002  -0.00002   2.69182
    R5        2.53463  -0.00001   0.00000   0.00000   0.00000   2.53463
    R6        2.67621  -0.00001   0.00000  -0.00002  -0.00002   2.67620
    R7        2.70068   0.00001   0.00000   0.00001   0.00001   2.70069
    R8        2.68683  -0.00001   0.00000  -0.00002  -0.00002   2.68680
    R9        2.66525  -0.00000   0.00000  -0.00001  -0.00001   2.66524
   R10        2.56482  -0.00000   0.00000   0.00000   0.00000   2.56482
   R11        2.04257  -0.00000   0.00000  -0.00000  -0.00000   2.04257
   R12        3.42708  -0.00000   0.00000   0.00000   0.00000   3.42709
   R13        2.59493  -0.00001   0.00000  -0.00001  -0.00001   2.59492
   R14        2.55391  -0.00001   0.00000  -0.00001  -0.00001   2.55390
   R15        2.58430   0.00000   0.00000   0.00000   0.00000   2.58430
   R16        2.04349   0.00000   0.00000   0.00000   0.00000   2.04349
   R17        2.64892  -0.00001   0.00000  -0.00001  -0.00001   2.64891
   R18        3.40041  -0.00000   0.00000  -0.00000  -0.00000   3.40041
   R19        2.04498   0.00000   0.00000   0.00000   0.00000   2.04498
   R20        2.37279  -0.00002   0.00000  -0.00004  -0.00004   2.37275
   R21        2.65264  -0.00001   0.00000   0.00001   0.00001   2.65266
   R22        2.63610  -0.00001   0.00000  -0.00003  -0.00003   2.63608
   R23        2.64403   0.00001   0.00000   0.00001   0.00001   2.64404
   R24        2.60807   0.00001   0.00000   0.00002   0.00002   2.60810
   R25        2.04780  -0.00000   0.00000  -0.00001  -0.00001   2.04779
   R26        2.60132   0.00001   0.00000   0.00003   0.00003   2.60135
   R27        2.04348  -0.00000   0.00000  -0.00002  -0.00002   2.04346
   R28        2.64852   0.00000   0.00000  -0.00003  -0.00003   2.64850
   R29        2.04767   0.00000   0.00000   0.00000   0.00000   2.04767
   R30        2.65849  -0.00001   0.00000  -0.00004  -0.00004   2.65845
   R31        2.04850   0.00000   0.00000  -0.00000  -0.00000   2.04850
   R32        2.59720   0.00001   0.00000   0.00014   0.00014   2.59734
   R33        1.90510   0.00000   0.00000   0.00002   0.00002   1.90512
   R34        1.90498   0.00000   0.00000   0.00003   0.00003   1.90501
   R35        1.92280  -0.00000   0.00000  -0.00007  -0.00007   1.92274
   R36        1.83937   0.00001   0.00000   0.00002   0.00002   1.83938
   R37        2.79822  -0.00001   0.00000  -0.00001  -0.00001   2.79821
   R38        2.79266  -0.00000   0.00000  -0.00000  -0.00000   2.79265
   R39        2.79767   0.00000   0.00000  -0.00000  -0.00000   2.79767
   R40        2.79350  -0.00000   0.00000  -0.00000  -0.00000   2.79350
   R41        2.79674  -0.00000   0.00000  -0.00000  -0.00000   2.79674
   R42        2.79352  -0.00000   0.00000  -0.00000  -0.00000   2.79352
    A1        2.06850  -0.00001   0.00000  -0.00001  -0.00001   2.06848
    A2        2.15563   0.00004   0.00000   0.00005   0.00005   2.15568
    A3        2.05906  -0.00003   0.00000  -0.00004  -0.00004   2.05902
    A4        2.12349   0.00000   0.00000   0.00002   0.00002   2.12351
    A5        2.10292   0.00000   0.00000  -0.00001  -0.00001   2.10292
    A6        2.05677  -0.00001   0.00000  -0.00001  -0.00001   2.05676
    A7        2.06403   0.00000   0.00000  -0.00000  -0.00000   2.06403
    A8        2.14717   0.00000   0.00000   0.00001   0.00001   2.14718
    A9        2.07198  -0.00000   0.00000  -0.00001  -0.00001   2.07198
   A10        2.08471   0.00000   0.00000   0.00000   0.00000   2.08471
   A11        2.09426   0.00000   0.00000   0.00000   0.00000   2.09426
   A12        2.10421  -0.00000   0.00000  -0.00000  -0.00000   2.10421
   A13        2.11842  -0.00000   0.00000  -0.00000  -0.00000   2.11842
   A14        2.08018  -0.00000   0.00000  -0.00000  -0.00000   2.08018
   A15        2.08459   0.00000   0.00000   0.00000   0.00000   2.08459
   A16        2.10723   0.00001   0.00000  -0.00000  -0.00000   2.10722
   A17        2.12727   0.00000   0.00000   0.00004   0.00004   2.12731
   A18        2.04869  -0.00001   0.00000  -0.00003  -0.00003   2.04865
   A19        2.09486   0.00000   0.00000   0.00000   0.00000   2.09486
   A20        2.13809   0.00001   0.00000   0.00003   0.00003   2.13812
   A21        2.05024  -0.00001   0.00000  -0.00004  -0.00004   2.05020
   A22        2.08599   0.00000   0.00000   0.00000   0.00000   2.08599
   A23        2.09552  -0.00000   0.00000   0.00000   0.00000   2.09553
   A24        2.10167  -0.00000   0.00000  -0.00001  -0.00001   2.10167
   A25        2.12238   0.00000   0.00000   0.00000   0.00000   2.12238
   A26        2.09728   0.00000   0.00000   0.00001   0.00001   2.09729
   A27        2.06350  -0.00000   0.00000  -0.00001  -0.00001   2.06349
   A28        2.09690  -0.00000   0.00000  -0.00000  -0.00000   2.09690
   A29        2.07343   0.00000   0.00000   0.00001   0.00001   2.07344
   A30        2.11284  -0.00000   0.00000  -0.00000  -0.00000   2.11284
   A31        2.03687   0.00007   0.00000   0.00007   0.00007   2.03694
   A32        2.05382  -0.00003   0.00000  -0.00006  -0.00006   2.05376
   A33        2.03627  -0.00000   0.00000  -0.00002  -0.00002   2.03625
   A34        2.16658  -0.00000   0.00000   0.00000   0.00000   2.16658
   A35        2.08033   0.00000   0.00000   0.00002   0.00002   2.08035
   A36        2.10852  -0.00000   0.00000  -0.00003  -0.00003   2.10849
   A37        2.07933   0.00000   0.00000   0.00001   0.00001   2.07934
   A38        2.09534   0.00000   0.00000   0.00002   0.00002   2.09535
   A39        2.09762  -0.00000   0.00000  -0.00001  -0.00001   2.09761
   A40        2.08739   0.00000   0.00000   0.00000   0.00000   2.08740
   A41        2.09818   0.00000   0.00000   0.00000   0.00000   2.09818
   A42        2.10028   0.00000   0.00000   0.00001   0.00001   2.10029
   A43        2.09583  -0.00000   0.00000  -0.00001  -0.00001   2.09582
   A44        2.08708  -0.00000   0.00000  -0.00000  -0.00000   2.08707
   A45        2.11013  -0.00000   0.00000  -0.00002  -0.00002   2.11011
   A46        2.09123   0.00000   0.00000   0.00002   0.00002   2.09125
   A47        2.08182  -0.00000   0.00000  -0.00000  -0.00000   2.08182
   A48        2.06950   0.00000   0.00000   0.00002   0.00002   2.06952
   A49        2.10924  -0.00000   0.00000  -0.00002  -0.00002   2.10922
   A50        2.10376   0.00000   0.00000  -0.00000  -0.00000   2.10376
   A51        2.05418  -0.00000   0.00000  -0.00026  -0.00026   2.05392
   A52        2.05522  -0.00000   0.00000  -0.00026  -0.00026   2.05496
   A53        1.99258  -0.00000   0.00000  -0.00029  -0.00029   1.99229
   A54        1.86134  -0.00002   0.00000   0.00000   0.00000   1.86134
   A55        1.90671  -0.00001   0.00000  -0.00004  -0.00004   1.90667
   A56        1.83922  -0.00001   0.00000  -0.00003  -0.00003   1.83919
   A57        1.84948   0.00000   0.00000   0.00001   0.00001   1.84949
   A58        1.84011   0.00001   0.00000   0.00002   0.00002   1.84013
   A59        1.97577   0.00000   0.00000   0.00002   0.00002   1.97579
   A60        1.96713  -0.00000   0.00000  -0.00000  -0.00000   1.96713
   A61        1.97664  -0.00001   0.00000  -0.00003  -0.00003   1.97661
   A62        1.85605   0.00001   0.00000   0.00003   0.00003   1.85608
   A63        1.82424  -0.00000   0.00000  -0.00001  -0.00001   1.82423
   A64        1.85667  -0.00000   0.00000   0.00001   0.00001   1.85667
   A65        1.96188  -0.00001   0.00000  -0.00002  -0.00002   1.96185
   A66        1.98852  -0.00000   0.00000  -0.00001  -0.00001   1.98851
   A67        1.96181   0.00000   0.00000   0.00001   0.00001   1.96182
    D1        0.00022   0.00000   0.00000   0.00001   0.00001   0.00023
    D2        3.14146  -0.00000   0.00000   0.00000   0.00000   3.14146
    D3       -3.14062   0.00000   0.00000   0.00004   0.00004  -3.14059
    D4        0.00062   0.00000   0.00000   0.00003   0.00003   0.00064
    D5       -0.00144  -0.00000   0.00000  -0.00006  -0.00006  -0.00150
    D6        3.13974  -0.00000   0.00000  -0.00004  -0.00004   3.13970
    D7        3.13944  -0.00000   0.00000  -0.00008  -0.00008   3.13936
    D8       -0.00256  -0.00000   0.00000  -0.00007  -0.00007  -0.00263
    D9        0.00100  -0.00000   0.00000  -0.00003  -0.00003   0.00098
   D10       -3.13984  -0.00000   0.00000   0.00000   0.00000  -3.13984
   D11        0.00146   0.00000   0.00000   0.00005   0.00005   0.00151
   D12       -3.14077   0.00000   0.00000   0.00008   0.00008  -3.14070
   D13       -3.13979   0.00000   0.00000   0.00006   0.00006  -3.13973
   D14        0.00117   0.00000   0.00000   0.00008   0.00008   0.00125
   D15       -0.00120  -0.00000   0.00000  -0.00004  -0.00004  -0.00125
   D16        3.14005  -0.00000   0.00000  -0.00005  -0.00005   3.14000
   D17       -0.00195  -0.00000   0.00000  -0.00006  -0.00006  -0.00201
   D18        3.13979  -0.00000   0.00000  -0.00004  -0.00004   3.13974
   D19        3.14025  -0.00000   0.00000  -0.00008  -0.00008   3.14017
   D20       -0.00120  -0.00000   0.00000  -0.00007  -0.00007  -0.00126
   D21       -3.14011  -0.00000   0.00000  -0.00005  -0.00005  -3.14016
   D22        0.00078  -0.00000   0.00000  -0.00003  -0.00003   0.00075
   D23        0.00084  -0.00000   0.00000  -0.00002  -0.00002   0.00082
   D24       -3.14145  -0.00000   0.00000  -0.00000  -0.00000  -3.14146
   D25        0.00079  -0.00000   0.00000   0.00001   0.00001   0.00081
   D26       -3.14042   0.00000   0.00000   0.00004   0.00004  -3.14038
   D27       -3.14095  -0.00000   0.00000  -0.00001  -0.00001  -3.14095
   D28        0.00103   0.00000   0.00000   0.00002   0.00002   0.00105
   D29        0.00037   0.00000   0.00000   0.00010   0.00010   0.00047
   D30       -3.13941  -0.00000   0.00000  -0.00002  -0.00002  -3.13944
   D31       -3.14107   0.00000   0.00000   0.00012   0.00012  -3.14095
   D32        0.00233  -0.00000   0.00000  -0.00001  -0.00001   0.00232
   D33        0.00094   0.00000   0.00000   0.00005   0.00005   0.00099
   D34       -3.14026   0.00000   0.00000   0.00004   0.00004  -3.14022
   D35       -3.14104   0.00000   0.00000   0.00002   0.00002  -3.14102
   D36        0.00095   0.00000   0.00000   0.00001   0.00001   0.00096
   D37       -1.06179  -0.00000   0.00000  -0.00010  -0.00010  -1.06189
   D38       -3.14044  -0.00000   0.00000  -0.00008  -0.00008  -3.14052
   D39        1.06389  -0.00000   0.00000  -0.00009  -0.00009   1.06380
   D40        2.07941  -0.00000   0.00000  -0.00009  -0.00009   2.07932
   D41        0.00076  -0.00000   0.00000  -0.00007  -0.00007   0.00069
   D42       -2.07810  -0.00000   0.00000  -0.00007  -0.00007  -2.07818
   D43        0.00033   0.00000   0.00000   0.00008   0.00008   0.00041
   D44        3.13923   0.00000   0.00000   0.00003   0.00003   3.13926
   D45       -3.14059   0.00000   0.00000   0.00006   0.00006  -3.14053
   D46       -0.00170   0.00000   0.00000   0.00001   0.00001  -0.00168
   D47       -0.00095  -0.00000   0.00000  -0.00000  -0.00000  -0.00095
   D48        3.13996   0.00000   0.00000   0.00002   0.00002   3.13998
   D49        0.00084  -0.00000   0.00000  -0.00005  -0.00005   0.00079
   D50        3.13449   0.00000   0.00000   0.00002   0.00002   3.13451
   D51        3.14062   0.00000   0.00000   0.00008   0.00008   3.14070
   D52       -0.00892   0.00000   0.00000   0.00014   0.00014  -0.00877
   D53       -0.00121  -0.00000   0.00000  -0.00004  -0.00004  -0.00125
   D54       -3.14004   0.00000   0.00000   0.00001   0.00001  -3.14004
   D55       -3.13500  -0.00000   0.00000  -0.00011  -0.00011  -3.13511
   D56        0.00935  -0.00000   0.00000  -0.00006  -0.00006   0.00929
   D57       -2.04409  -0.00000   0.00000   0.00027   0.00027  -2.04382
   D58        0.05461   0.00000   0.00000   0.00029   0.00029   0.05490
   D59        2.15475   0.00000   0.00000   0.00028   0.00028   2.15503
   D60        1.08982   0.00000   0.00000   0.00034   0.00034   1.09016
   D61       -3.09466   0.00000   0.00000   0.00036   0.00036  -3.09431
   D62       -0.99452   0.00000   0.00000   0.00034   0.00034  -0.99418
   D63        3.14063  -0.00001   0.00000  -0.00009  -0.00009   3.14053
   D64       -3.13680  -0.00000   0.00000   0.00003   0.00003  -3.13677
   D65        0.00243  -0.00000   0.00000  -0.00000  -0.00000   0.00243
   D66        3.13981  -0.00000   0.00000  -0.00003  -0.00003   3.13978
   D67        0.00004  -0.00000   0.00000  -0.00000  -0.00000   0.00004
   D68        0.00046   0.00000   0.00000  -0.00000  -0.00000   0.00046
   D69       -3.13931   0.00000   0.00000   0.00003   0.00003  -3.13928
   D70       -3.14014   0.00000   0.00000   0.00001   0.00001  -3.14013
   D71        0.00028  -0.00000   0.00000  -0.00001  -0.00001   0.00027
   D72       -0.00097  -0.00000   0.00000  -0.00002  -0.00002  -0.00099
   D73        3.13945  -0.00000   0.00000  -0.00004  -0.00004   3.13941
   D74       -0.00053   0.00000   0.00000   0.00002   0.00002  -0.00052
   D75        3.14135   0.00000   0.00000   0.00002   0.00002   3.14136
   D76        3.13922  -0.00000   0.00000  -0.00001  -0.00001   3.13920
   D77       -0.00209  -0.00000   0.00000  -0.00001  -0.00001  -0.00210
   D78        0.00156   0.00000   0.00000   0.00003   0.00003   0.00160
   D79       -3.14007   0.00000   0.00000   0.00001   0.00001  -3.14005
   D80       -3.13885   0.00000   0.00000   0.00005   0.00005  -3.13880
   D81        0.00271   0.00000   0.00000   0.00003   0.00003   0.00274
   D82        0.00108  -0.00000   0.00000  -0.00001  -0.00001   0.00108
   D83        3.10304  -0.00000   0.00000  -0.00010  -0.00010   3.10294
   D84       -3.14080  -0.00000   0.00000  -0.00000  -0.00000  -3.14080
   D85       -0.03884  -0.00000   0.00000  -0.00010  -0.00010  -0.03894
   D86       -0.00160  -0.00000   0.00000  -0.00002  -0.00002  -0.00162
   D87       -3.10369   0.00000   0.00000   0.00008   0.00008  -3.10362
   D88        3.14002   0.00000   0.00000   0.00000   0.00000   3.14002
   D89        0.03793   0.00000   0.00000   0.00010   0.00010   0.03803
   D90        0.34049   0.00000   0.00000   0.00069   0.00069   0.34118
   D91        2.83644  -0.00000   0.00000  -0.00068  -0.00068   2.83575
   D92       -2.84151   0.00000   0.00000   0.00059   0.00059  -2.84092
   D93       -0.34556  -0.00001   0.00000  -0.00078  -0.00078  -0.34634
         Item               Value     Threshold  Converged?
 Maximum Force            0.000067     0.000450     YES
 RMS     Force            0.000008     0.000300     YES
 Maximum Displacement     0.001755     0.001800     YES
 RMS     Displacement     0.000306     0.001200     YES
 Predicted change in Energy=-2.044939D-08
 Optimization completed.
    -- Stationary point found.
                           ----------------------------
                           !   Optimized Parameters   !
                           ! (Angstroms and Degrees)  !
 --------------------------                            --------------------------
 ! Name  Definition              Value          Derivative Info.                !
 --------------------------------------------------------------------------------
 ! R1    R(1,2)                  1.3951         -DE/DX =    0.0                 !
 ! R2    R(1,6)                  1.4293         -DE/DX =    0.0                 !
 ! R3    R(1,14)                 1.3951         -DE/DX =    0.0                 !
 ! R4    R(2,3)                  1.4245         -DE/DX =    0.0                 !
 ! R5    R(2,29)                 1.3413         -DE/DX =    0.0                 !
 ! R6    R(3,4)                  1.4162         -DE/DX =    0.0                 !
 ! R7    R(3,7)                  1.4291         -DE/DX =    0.0                 !
 ! R8    R(4,5)                  1.4218         -DE/DX =    0.0                 !
 ! R9    R(4,8)                  1.4104         -DE/DX =    0.0                 !
 ! R10   R(5,6)                  1.3572         -DE/DX =    0.0                 !
 ! R11   R(5,9)                  1.0809         -DE/DX =    0.0                 !
 ! R12   R(6,36)                 1.8135         -DE/DX =    0.0                 !
 ! R13   R(7,11)                 1.3732         -DE/DX =    0.0                 !
 ! R14   R(7,30)                 1.3515         -DE/DX =    0.0                 !
 ! R15   R(8,10)                 1.3676         -DE/DX =    0.0                 !
 ! R16   R(8,12)                 1.0814         -DE/DX =    0.0                 !
 ! R17   R(10,11)                1.4018         -DE/DX =    0.0                 !
 ! R18   R(10,32)                1.7994         -DE/DX =    0.0                 !
 ! R19   R(11,13)                1.0822         -DE/DX =    0.0                 !
 ! R20   R(14,15)                1.2556         -DE/DX =    0.0                 !
 ! R21   R(15,16)                1.4037         -DE/DX =    0.0                 !
 ! R22   R(16,17)                1.395          -DE/DX =    0.0                 !
 ! R23   R(16,18)                1.3992         -DE/DX =    0.0                 !
 ! R24   R(17,19)                1.3801         -DE/DX =    0.0                 !
 ! R25   R(17,20)                1.0837         -DE/DX =    0.0                 !
 ! R26   R(18,21)                1.3766         -DE/DX =    0.0                 !
 ! R27   R(18,22)                1.0814         -DE/DX =    0.0                 !
 ! R28   R(19,23)                1.4015         -DE/DX =    0.0                 !
 ! R29   R(19,24)                1.0836         -DE/DX =    0.0                 !
 ! R30   R(21,23)                1.4068         -DE/DX =    0.0                 !
 ! R31   R(21,25)                1.084          -DE/DX =    0.0                 !
 ! R32   R(23,26)                1.3744         -DE/DX =    0.0                 !
 ! R33   R(26,27)                1.0081         -DE/DX =    0.0                 !
 ! R34   R(26,28)                1.0081         -DE/DX =    0.0                 !
 ! R35   R(29,40)                1.0175         -DE/DX =    0.0                 !
 ! R36   R(30,31)                0.9734         -DE/DX =    0.0                 !
 ! R37   R(32,33)                1.4808         -DE/DX =    0.0                 !
 ! R38   R(32,34)                1.4778         -DE/DX =    0.0                 !
 ! R39   R(32,35)                1.4805         -DE/DX =    0.0                 !
 ! R40   R(36,37)                1.4783         -DE/DX =    0.0                 !
 ! R41   R(36,38)                1.48           -DE/DX =    0.0                 !
 ! R42   R(36,39)                1.4783         -DE/DX =    0.0                 !
 ! A1    A(2,1,6)              118.5161         -DE/DX =    0.0                 !
 ! A2    A(2,1,14)             123.5087         -DE/DX =    0.0                 !
 ! A3    A(6,1,14)             117.9752         -DE/DX =    0.0                 !
 ! A4    A(1,2,3)              121.6669         -DE/DX =    0.0                 !
 ! A5    A(1,2,29)             120.4887         -DE/DX =    0.0                 !
 ! A6    A(3,2,29)             117.8444         -DE/DX =    0.0                 !
 ! A7    A(2,3,4)              118.2604         -DE/DX =    0.0                 !
 ! A8    A(2,3,7)              123.0236         -DE/DX =    0.0                 !
 ! A9    A(4,3,7)              118.7159         -DE/DX =    0.0                 !
 ! A10   A(3,4,5)              119.445          -DE/DX =    0.0                 !
 ! A11   A(3,4,8)              119.9924         -DE/DX =    0.0                 !
 ! A12   A(5,4,8)              120.5626         -DE/DX =    0.0                 !
 ! A13   A(4,5,6)              121.3763         -DE/DX =    0.0                 !
 ! A14   A(4,5,9)              119.1856         -DE/DX =    0.0                 !
 ! A15   A(6,5,9)              119.4381         -DE/DX =    0.0                 !
 ! A16   A(1,6,5)              120.7351         -DE/DX =    0.0                 !
 ! A17   A(1,6,36)             121.8838         -DE/DX =    0.0                 !
 ! A18   A(5,6,36)             117.3811         -DE/DX =    0.0                 !
 ! A19   A(3,7,11)             120.0266         -DE/DX =    0.0                 !
 ! A20   A(3,7,30)             122.5036         -DE/DX =    0.0                 !
 ! A21   A(11,7,30)            117.4698         -DE/DX =    0.0                 !
 ! A22   A(4,8,10)             119.5182         -DE/DX =    0.0                 !
 ! A23   A(4,8,12)             120.0647         -DE/DX =    0.0                 !
 ! A24   A(10,8,12)            120.417          -DE/DX =    0.0                 !
 ! A25   A(8,10,11)            121.6032         -DE/DX =    0.0                 !
 ! A26   A(8,10,32)            120.1655         -DE/DX =    0.0                 !
 ! A27   A(11,10,32)           118.2298         -DE/DX =    0.0                 !
 ! A28   A(7,11,10)            120.1437         -DE/DX =    0.0                 !
 ! A29   A(7,11,13)            118.7991         -DE/DX =    0.0                 !
 ! A30   A(10,11,13)           121.0571         -DE/DX =    0.0                 !
 ! A31   A(1,14,15)            116.7039         -DE/DX =    0.0001              !
 ! A32   A(14,15,16)           117.675          -DE/DX =    0.0                 !
 ! A33   A(15,16,17)           116.6698         -DE/DX =    0.0                 !
 ! A34   A(15,16,18)           124.1361         -DE/DX =    0.0                 !
 ! A35   A(17,16,18)           119.194          -DE/DX =    0.0                 !
 ! A36   A(16,17,19)           120.8092         -DE/DX =    0.0                 !
 ! A37   A(16,17,20)           119.1368         -DE/DX =    0.0                 !
 ! A38   A(19,17,20)           120.0539         -DE/DX =    0.0                 !
 ! A39   A(16,18,21)           120.1846         -DE/DX =    0.0                 !
 ! A40   A(16,18,22)           119.5987         -DE/DX =    0.0                 !
 ! A41   A(21,18,22)           120.2167         -DE/DX =    0.0                 !
 ! A42   A(17,19,23)           120.3371         -DE/DX =    0.0                 !
 ! A43   A(17,19,24)           120.0822         -DE/DX =    0.0                 !
 ! A44   A(23,19,24)           119.5807         -DE/DX =    0.0                 !
 ! A45   A(18,21,23)           120.9016         -DE/DX =    0.0                 !
 ! A46   A(18,21,25)           119.8186         -DE/DX =    0.0                 !
 ! A47   A(23,21,25)           119.2797         -DE/DX =    0.0                 !
 ! A48   A(19,23,21)           118.5734         -DE/DX =    0.0                 !
 ! A49   A(19,23,26)           120.8504         -DE/DX =    0.0                 !
 ! A50   A(21,23,26)           120.5367         -DE/DX =    0.0                 !
 ! A51   A(23,26,27)           117.6958         -DE/DX =    0.0                 !
 ! A52   A(23,26,28)           117.7554         -DE/DX =    0.0                 !
 ! A53   A(27,26,28)           114.1664         -DE/DX =    0.0                 !
 ! A54   A(2,29,40)            106.647          -DE/DX =    0.0                 !
 ! A55   A(7,30,31)            109.2466         -DE/DX =    0.0                 !
 ! A56   A(10,32,33)           105.3796         -DE/DX =    0.0                 !
 ! A57   A(10,32,34)           105.9672         -DE/DX =    0.0                 !
 ! A58   A(10,32,35)           105.4306         -DE/DX =    0.0                 !
 ! A59   A(33,32,34)           113.2031         -DE/DX =    0.0                 !
 ! A60   A(33,32,35)           112.7081         -DE/DX =    0.0                 !
 ! A61   A(34,32,35)           113.2531         -DE/DX =    0.0                 !
 ! A62   A(6,36,37)            106.3436         -DE/DX =    0.0                 !
 ! A63   A(6,36,38)            104.5213         -DE/DX =    0.0                 !
 ! A64   A(6,36,39)            106.3792         -DE/DX =    0.0                 !
 ! A65   A(37,36,38)           112.4073         -DE/DX =    0.0                 !
 ! A66   A(37,36,39)           113.9339         -DE/DX =    0.0                 !
 ! A67   A(38,36,39)           112.4034         -DE/DX =    0.0                 !
 ! D1    D(6,1,2,3)              0.0125         -DE/DX =    0.0                 !
 ! D2    D(6,1,2,29)           179.9922         -DE/DX =    0.0                 !
 ! D3    D(14,1,2,3)          -179.9444         -DE/DX =    0.0                 !
 ! D4    D(14,1,2,29)            0.0353         -DE/DX =    0.0                 !
 ! D5    D(2,1,6,5)             -0.0825         -DE/DX =    0.0                 !
 ! D6    D(2,1,6,36)           179.8939         -DE/DX =    0.0                 !
 ! D7    D(14,1,6,5)           179.8768         -DE/DX =    0.0                 !
 ! D8    D(14,1,6,36)           -0.1468         -DE/DX =    0.0                 !
 ! D9    D(2,1,14,15)            0.0574         -DE/DX =    0.0                 !
 ! D10   D(6,1,14,15)         -179.8997         -DE/DX =    0.0                 !
 ! D11   D(1,2,3,4)              0.0834         -DE/DX =    0.0                 !
 ! D12   D(1,2,3,7)           -179.9531         -DE/DX =    0.0                 !
 ! D13   D(29,2,3,4)          -179.8967         -DE/DX =    0.0                 !
 ! D14   D(29,2,3,7)             0.0668         -DE/DX =    0.0                 !
 ! D15   D(1,2,29,40)           -0.069          -DE/DX =    0.0                 !
 ! D16   D(3,2,29,40)          179.9114         -DE/DX =    0.0                 !
 ! D17   D(2,3,4,5)             -0.1119         -DE/DX =    0.0                 !
 ! D18   D(2,3,4,8)            179.8965         -DE/DX =    0.0                 !
 ! D19   D(7,3,4,5)            179.923          -DE/DX =    0.0                 !
 ! D20   D(7,3,4,8)             -0.0686         -DE/DX =    0.0                 !
 ! D21   D(2,3,7,11)          -179.9151         -DE/DX =    0.0                 !
 ! D22   D(2,3,7,30)             0.0447         -DE/DX =    0.0                 !
 ! D23   D(4,3,7,11)             0.0483         -DE/DX =    0.0                 !
 ! D24   D(4,3,7,30)          -179.9919         -DE/DX =    0.0                 !
 ! D25   D(3,4,5,6)              0.0455         -DE/DX =    0.0                 !
 ! D26   D(3,4,5,9)           -179.9325         -DE/DX =    0.0                 !
 ! D27   D(8,4,5,6)           -179.9629         -DE/DX =    0.0                 !
 ! D28   D(8,4,5,9)              0.059          -DE/DX =    0.0                 !
 ! D29   D(3,4,8,10)             0.0213         -DE/DX =    0.0                 !
 ! D30   D(3,4,8,12)          -179.875          -DE/DX =    0.0                 !
 ! D31   D(5,4,8,10)          -179.9702         -DE/DX =    0.0                 !
 ! D32   D(5,4,8,12)             0.1335         -DE/DX =    0.0                 !
 ! D33   D(4,5,6,1)              0.0538         -DE/DX =    0.0                 !
 ! D34   D(4,5,6,36)          -179.9237         -DE/DX =    0.0                 !
 ! D35   D(9,5,6,1)           -179.9682         -DE/DX =    0.0                 !
 ! D36   D(9,5,6,36)             0.0544         -DE/DX =    0.0                 !
 ! D37   D(1,6,36,37)          -60.8359         -DE/DX =    0.0                 !
 ! D38   D(1,6,36,38)         -179.9338         -DE/DX =    0.0                 !
 ! D39   D(1,6,36,39)           60.9563         -DE/DX =    0.0                 !
 ! D40   D(5,6,36,37)          119.1413         -DE/DX =    0.0                 !
 ! D41   D(5,6,36,38)            0.0433         -DE/DX =    0.0                 !
 ! D42   D(5,6,36,39)         -119.0665         -DE/DX =    0.0                 !
 ! D43   D(3,7,11,10)            0.0191         -DE/DX =    0.0                 !
 ! D44   D(3,7,11,13)          179.8646         -DE/DX =    0.0                 !
 ! D45   D(30,7,11,10)        -179.9427         -DE/DX =    0.0                 !
 ! D46   D(30,7,11,13)          -0.0971         -DE/DX =    0.0                 !
 ! D47   D(3,7,30,31)           -0.0542         -DE/DX =    0.0                 !
 ! D48   D(11,7,30,31)         179.9066         -DE/DX =    0.0                 !
 ! D49   D(4,8,10,11)            0.0482         -DE/DX =    0.0                 !
 ! D50   D(4,8,10,32)          179.5931         -DE/DX =    0.0                 !
 ! D51   D(12,8,10,11)         179.9441         -DE/DX =    0.0                 !
 ! D52   D(12,8,10,32)          -0.511          -DE/DX =    0.0                 !
 ! D53   D(8,10,11,7)           -0.0691         -DE/DX =    0.0                 !
 ! D54   D(8,10,11,13)        -179.9111         -DE/DX =    0.0                 !
 ! D55   D(32,10,11,7)        -179.6225         -DE/DX =    0.0                 !
 ! D56   D(32,10,11,13)          0.5355         -DE/DX =    0.0                 !
 ! D57   D(8,10,32,33)        -117.1179         -DE/DX =    0.0                 !
 ! D58   D(8,10,32,34)           3.1289         -DE/DX =    0.0                 !
 ! D59   D(8,10,32,35)         123.4581         -DE/DX =    0.0                 !
 ! D60   D(11,10,32,33)         62.4422         -DE/DX =    0.0                 !
 ! D61   D(11,10,32,34)       -177.3111         -DE/DX =    0.0                 !
 ! D62   D(11,10,32,35)        -56.9819         -DE/DX =    0.0                 !
 ! D63   D(1,14,15,16)         179.9447         -DE/DX =    0.0                 !
 ! D64   D(14,15,16,17)       -179.7252         -DE/DX =    0.0                 !
 ! D65   D(14,15,16,18)          0.1393         -DE/DX =    0.0                 !
 ! D66   D(15,16,17,19)        179.8977         -DE/DX =    0.0                 !
 ! D67   D(15,16,17,20)          0.0024         -DE/DX =    0.0                 !
 ! D68   D(18,16,17,19)          0.0262         -DE/DX =    0.0                 !
 ! D69   D(18,16,17,20)       -179.8691         -DE/DX =    0.0                 !
 ! D70   D(15,16,18,21)       -179.9167         -DE/DX =    0.0                 !
 ! D71   D(15,16,18,22)          0.0159         -DE/DX =    0.0                 !
 ! D72   D(17,16,18,21)         -0.0554         -DE/DX =    0.0                 !
 ! D73   D(17,16,18,22)        179.8772         -DE/DX =    0.0                 !
 ! D74   D(16,17,19,23)         -0.0305         -DE/DX =    0.0                 !
 ! D75   D(16,17,19,24)        179.986          -DE/DX =    0.0                 !
 ! D76   D(20,17,19,23)        179.8638         -DE/DX =    0.0                 !
 ! D77   D(20,17,19,24)         -0.1196         -DE/DX =    0.0                 !
 ! D78   D(16,18,21,23)          0.0894         -DE/DX =    0.0                 !
 ! D79   D(16,18,21,25)       -179.9126         -DE/DX =    0.0                 !
 ! D80   D(22,18,21,23)       -179.8428         -DE/DX =    0.0                 !
 ! D81   D(22,18,21,25)          0.1553         -DE/DX =    0.0                 !
 ! D82   D(17,19,23,21)          0.062          -DE/DX =    0.0                 !
 ! D83   D(17,19,23,26)        177.7913         -DE/DX =    0.0                 !
 ! D84   D(24,19,23,21)       -179.9544         -DE/DX =    0.0                 !
 ! D85   D(24,19,23,26)         -2.2252         -DE/DX =    0.0                 !
 ! D86   D(18,21,23,19)         -0.0919         -DE/DX =    0.0                 !
 ! D87   D(18,21,23,26)       -177.8286         -DE/DX =    0.0                 !
 ! D88   D(25,21,23,19)        179.91           -DE/DX =    0.0                 !
 ! D89   D(25,21,23,26)          2.1734         -DE/DX =    0.0                 !
 ! D90   D(19,23,26,27)         19.5086         -DE/DX =    0.0                 !
 ! D91   D(19,23,26,28)        162.5159         -DE/DX =    0.0                 !
 ! D92   D(21,23,26,27)       -162.8067         -DE/DX =    0.0                 !
 ! D93   D(21,23,26,28)        -19.7994         -DE/DX =    0.0                 !
 --------------------------------------------------------------------------------
 GradGradGradGradGradGradGradGradGradGradGradGradGradGradGradGradGradGrad


 ----------------------------------------------------------------------

 Electric dipole moment (input orientation):
 (Debye = 10**-18 statcoulomb cm , SI units = C m)
                  (au)            (Debye)         (10**-30 SI)
   Tot        0.148328D+02      0.377011D+02      0.125757D+03
   x          0.134351D+02      0.341487D+02      0.113908D+03
   y         -0.627219D+01     -0.159423D+02     -0.531779D+02
   z         -0.409626D+00     -0.104117D+01     -0.347296D+01

 Dipole polarizability, Alpha (input orientation).
 (esu units = cm**3 , SI units = C**2 m**2 J**-1)
 Alpha(0;0):
               (au)            (10**-24 esu)      (10**-40 SI)
   iso        0.494647D+03      0.732991D+02      0.815563D+02
   aniso      0.533525D+03      0.790602D+02      0.879664D+02
   xx         0.832696D+03      0.123393D+03      0.137293D+03
   yx        -0.110289D+02     -0.163432D+01     -0.181842D+01
   yy         0.420748D+03      0.623485D+02      0.693720D+02
   zx         0.210851D+01      0.312449D+00      0.347646D+00
   zy        -0.318013D+00     -0.471246D-01     -0.524332D-01
   zz         0.230497D+03      0.341561D+02      0.380038D+02

 ----------------------------------------------------------------------

 Dipole orientation:
     6          0.41901066          0.98080172          1.08385583
     6         -0.67200163         -1.38005986          0.65196620
     6         -1.03637940         -2.33413532         -1.83861299
     6         -0.25548254         -0.81990848         -3.90245020
     6          0.85236695          1.58251828         -3.43334170
     6          1.18051706          2.45833846         -1.04512776
     6         -2.14921213         -4.74241682         -2.34402009
     6         -0.57977553         -1.69880073         -6.39762918
     1          1.44361072          2.73256224         -5.01446012
     6         -1.65104516         -4.01550738         -6.80243969
     6         -2.44223683         -5.54925904         -4.79285742
     1          0.01919200         -0.54604027         -7.97503799
     1         -3.28557742         -7.38105460         -5.13232276
     7          0.81174899          1.98444807          3.48984864
     7          0.12954574          0.64722850          5.32739226
     6          0.50886970          1.61900106          7.76630043
     6         -0.25312102          0.09605687          9.77852239
     6          1.59084440          3.97794887          8.27185695
     6          0.04806649          0.89097665         12.24417485
     1         -1.08719613         -1.73233362          9.38506486
     6          1.89366209          4.77857436         10.72831041
     1          2.18940638          5.16698020          6.72145591
     6          1.13039111          3.25125556         12.76602171
     1         -0.55214934         -0.30991125         13.79032203
     1          2.73081379          6.60943752         11.10708420
     7          1.36202343          4.09918344         15.20995338
     1          1.27688404          2.80706589         16.60730008
     1          2.57763527          5.52785060         15.54184266
     8         -1.41362625         -2.82885737          2.59498745
     8         -2.94536615         -6.30340490         -0.48608606
     1         -2.62935438         -5.51481041          1.14533384
    16         -2.09932070         -5.16031581         -9.97281335
     8         -4.86760677         -5.42854282        -10.28050488
     8         -0.98788874         -3.22579176        -11.65247677
     8         -0.75858332         -7.61366964        -10.07488312
    16          2.61074518          5.55163217         -0.68334474
     8          0.72375235          7.14190028          0.62584414
     8          3.09665266          6.40997156         -3.30038133
     8          4.96781332          5.16513750          0.76531795
     1         -1.00546733         -1.85024967          4.19901675

 Electric dipole moment (dipole orientation):
 (Debye = 10**-18 statcoulomb cm , SI units = C m)
                  (au)            (Debye)         (10**-30 SI)
   Tot        0.148328D+02      0.377011D+02      0.125757D+03
   x          0.000000D+00      0.000000D+00      0.000000D+00
   y          0.000000D+00      0.000000D+00      0.000000D+00
   z          0.148328D+02      0.377011D+02      0.125757D+03

 Dipole polarizability, Alpha (dipole orientation).
 (esu units = cm**3 , SI units = C**2 m**2 J**-1)
 Alpha(0;0):
               (au)            (10**-24 esu)      (10**-40 SI)
   iso        0.494647D+03      0.732991D+02      0.815563D+02
   aniso      0.533525D+03      0.790602D+02      0.879664D+02
   xx         0.272994D+03      0.404535D+02      0.450106D+02
   yx         0.946782D+02      0.140299D+02      0.156103D+02
   yy         0.444036D+03      0.657994D+02      0.732117D+02
   zx         0.484880D+02      0.718518D+01      0.799459D+01
   zy         0.143729D+03      0.212984D+02      0.236977D+02
   zz         0.766912D+03      0.113645D+03      0.126447D+03

 ----------------------------------------------------------------------
 Unable to Open any file for archive entry.
 1\1\GINC-SOL-E611\Freq\RCAM-B3LYP\6-311++G(d,p)\C16H11N3O8S2(2-)\ZJK22
 0\19-Mar-2025\0\\#N Geom=AllCheck Guess=TCheck SCRF=Check GenChk RCAM-
 B3LYP/6-311++G(d,p) Freq\\opt freq\\-2,1\C,0.7585967916,0.2683821132,0
 .0027947211\C,-0.0307340193,-0.8819635948,0.003759201\C,-1.4535055463,
 -0.8126360039,0.0013163588\C,-2.062531415,0.4658997231,-0.0039826808\C
 ,-1.2453048378,1.6293772152,-0.0042604375\C,0.1090941068,1.5416085311,
 -0.0004682119\C,-2.2897630388,-1.9715581963,0.0032030118\C,-3.46852167
 05,0.5770810188,-0.0087479336\H,-1.7145501224,2.6030860016,-0.00720286
 25\C,-4.2340367749,-0.5561399172,-0.007761672\C,-3.6559371959,-1.83311
 30906,-0.0011043293\H,-3.9347839327,1.5527428244,-0.0148388146\H,-4.27
 0207839,-2.7240295601,-0.0018151556\N,2.1535026519,0.2453017646,0.0039
 724525\N,2.6991195388,-0.8855813775,0.0048817967\C,4.1020491479,-0.932
 5884686,0.0048758716\C,4.6860814759,-2.1993982933,-0.0000834446\C,4.92
 55433194,0.198562652,0.0067384396\C,6.0585052994,-2.3450535487,-0.0026
 02256\H,4.0474075436,-3.0748312015,-0.0036843709\C,6.2948820342,0.0577
 697495,0.0048494482\H,4.4797530346,1.1837606437,0.0085635166\C,6.89011
 40665,-1.2168998876,-0.0008476215\H,6.4996485037,-3.3347648521,-0.0062
 255776\H,6.9272876566,0.9381975543,0.0077436117\N,8.2574238428,-1.3493
 003265,0.0421513557\H,8.6508237004,-2.2377515514,-0.2265955077\H,8.814
 8206058,-0.5531903997,-0.225669547\O,0.5372686841,-2.0970218892,0.0066
 410637\O,-1.790438238,-3.2273941983,0.0083604155\H,-0.817967047,-3.186
 0165189,0.0095121294\S,-6.0293382589,-0.4345549201,-0.002736558\O,-6.4
 616550535,-1.0585624229,1.2686201444\O,-6.3392833223,1.0084241499,-0.0
 780311625\O,-6.4787642941,-1.1917750836,-1.1928627224\S,1.0455415134,3
 .0946612941,0.0008955987\O,1.8484832346,3.0951669859,1.242078319\O,0.0
 102515042,4.1522416681,-0.0016929243\O,1.854266697,3.0948888891,-1.236
 5381268\H,1.5438376532,-1.9482474761,0.0065444608\\Version=ES64L-G16Re
 vC.01\State=1-A\HF=-2178.8268977\RMSD=6.633e-09\RMSF=6.289e-06\ZeroPoi
 nt=0.2699221\Thermal=0.2943675\ETot=-2178.5325302\HTot=-2178.531586\GT
 ot=-2178.6128792\Dipole=13.4351345,-6.2721915,-0.4096264\DipoleDeriv=-
 1.877774,-0.4771563,-0.0019183,-0.4003926,-0.193764,-0.0001491,-0.0061
 657,-0.001424,-0.0031002,0.5604214,-0.4287702,0.0002771,0.9836858,1.35
 67899,0.0008327,-0.0008471,-0.0020302,0.2116568,-0.0264673,0.230675,0.
 000653,0.3934149,-0.3201981,0.0012891,-0.0016591,-0.0002913,-0.0593649
 ,1.3112649,0.3751495,0.0007925,0.4694375,0.1441389,0.001298,0.0076956,
 0.0013377,0.0650471,-1.4231633,-0.0623457,-0.0024344,-0.634042,-0.2556
 02,-0.0013706,-0.0031528,-0.0002301,-0.1448862,0.8308248,-0.0405745,0.
 0026281,-1.2004885,-0.1445567,-0.0026811,0.0049037,0.0009355,-0.297196
 ,0.0989313,-1.150499,0.0020908,-0.2057461,1.7512617,-0.0049624,0.00136
 58,-0.0065787,0.1631737,-1.380622,-0.4907451,0.0018544,-0.4244602,-0.3
 191574,0.0018931,-0.0006246,-0.0068036,-0.1616482,0.0681596,0.0774973,
 -0.0003857,0.0408975,0.1078441,0.0003446,-0.001087,0.0003399,0.173311,
 -0.3904192,-0.1352842,-0.0074521,1.0096755,0.5326676,-0.001102,-0.0310
 201,-0.0027815,-0.275483,-0.0955689,0.8366744,0.0007901,-0.5767483,-0.
 4068241,-0.0027055,0.0138322,0.0076661,-0.2054961,0.12997,0.0025866,-0
 .0001126,0.038481,0.0215743,0.0000601,-0.0003944,0.0000811,0.1830842,0
 .0964697,-0.0622485,0.0011796,-0.0642624,0.0179936,0.0009411,0.00049,0
 .0017443,0.1931389,1.2648451,0.0693216,0.0000639,0.7047804,-0.3186201,
 0.004276,0.0094488,-0.0002989,-0.109534,1.7203649,-0.5517816,0.0114593
 ,0.3056375,-0.1965373,-0.0018449,-0.0114881,0.0017849,-0.0805319,-2.07
 07942,0.3509156,-0.0156392,-0.3136187,-0.1725371,-0.0016243,0.0055988,
 -0.0013493,-0.0339086,1.1093858,-0.3285914,0.0087408,-0.8479824,0.3053
 848,0.0000875,0.0034506,0.00451,-0.1239582,1.2533036,0.0446939,0.00996
 8,0.6511498,-0.0026242,-0.0003599,-0.0011582,-0.0039115,-0.0915337,-1.
 5083809,0.2238363,-0.0172516,-1.0644163,0.0944305,-0.0193308,0.0341747
 ,-0.0101462,-0.2595191,0.080785,-0.1115015,0.0002536,-0.0880997,0.0130
 802,-0.001165,-0.0022864,-0.0012137,0.177089,-1.3870237,0.1357308,-0.0
 126061,1.3969272,-0.1540557,0.0238418,0.043397,0.0033517,-0.2491053,0.
 160331,0.0057738,0.0008453,0.040771,0.0283504,-0.0000386,-0.0016072,0.
 000682,0.1771049,3.8470626,-0.4043849,0.0955787,-0.503772,0.2168116,-0
 .0090018,0.1791887,-0.0213612,0.1557198,-0.0057143,0.0933058,0.0013825
 ,0.1296443,-0.0555078,-0.0005972,-0.001486,-0.0018781,0.1919839,-0.069
 0419,-0.0931358,0.0016341,-0.1206513,-0.0069383,-0.001547,0.0001517,0.
 0009423,0.1854281,-3.6959299,0.3852718,-0.1325314,0.3595965,-0.2882424
 ,0.0126157,-0.895193,0.0994761,-0.6577342,0.2809735,-0.0674921,0.02252
 17,-0.2190369,0.2229423,-0.0355477,0.3131885,-0.0923899,0.3577782,0.34
 02979,0.0426888,0.0282914,0.1914575,0.1619444,0.0314533,0.3278472,0.02
 22983,0.358072,-0.9740629,0.4127367,-0.0004873,-0.7245073,-1.6436425,0
 .0000086,0.0029669,0.0033688,-0.4381391,-0.8316092,0.7190455,-0.002750
 5,0.2225247,-1.8995772,0.004209,-0.0011709,0.0059238,-0.4710316,0.8332
 538,0.0381308,0.000432,0.1887042,0.4791478,0.0002247,-0.0009921,-0.000
 7152,0.3997326,4.3966227,0.191859,0.0114941,-0.0643193,3.1051417,-0.00
 11979,-0.0003922,-0.0025489,3.2089772,-1.6635881,-0.1804399,0.2768462,
 -0.3124268,-1.0701059,0.3431802,0.6848508,0.3726156,-1.6179285,-1.4715
 736,0.2479787,-0.0149028,0.6590569,-1.7536687,0.0467787,-0.0291176,0.0
 496322,-0.9076242,-1.6637282,-0.2188771,-0.2710712,-0.3874374,-1.15035
 87,-0.388683,-0.6420839,-0.4199938,-1.5322595,3.3059445,0.2013569,-0.0
 012298,0.1481541,3.6131572,-0.0022294,-0.0015414,-0.0002876,3.2038691,
 -1.3657419,-0.2757157,-0.4389159,-0.1343888,-1.1858628,-0.0537361,-0.5
 878705,-0.2782653,-1.5794166,-1.2721591,0.4986994,-0.0009633,0.3425706
 ,-1.8433944,0.0018767,-0.000087,0.0011099,-0.8979523,-1.3706376,-0.276
 8782,0.4411871,-0.1340726,-1.185865,0.0545833,0.5894448,0.2769368,-1.5
 756393,0.8547879,0.1724935,-0.000312,0.1443025,0.3949793,0.0000801,-0.
 0005706,-0.0002379,0.3678246\Polar=832.6960285,-11.0289125,420.7482552
 ,2.1085086,-0.3180129,230.4968554\Quadrupole=-62.6591557,12.9527769,49
 .7063788,-41.2730779,-6.6779424,1.0786889\PG=C01 [X(C16H11N3O8S2)]\NIm
 ag=0\\0.62028930,-0.01042600,0.68566336,0.00058686,-0.00090431,0.13893
 202,-0.18761303,-0.05806102,-0.00007851,0.68206744,-0.08444846,-0.2330
 2442,0.00017856,0.00888703,0.68302101,0.00001474,0.00026790,-0.0714087
 9,0.00063602,-0.00103731,0.16283017,-0.02620088,-0.05456376,0.00007185
 ,-0.25536627,0.01481853,-0.00027483,0.67463682,-0.02301826,0.01275740,
 -0.00004085,-0.01253038,-0.11751048,0.00009442,-0.01038727,0.67675388,
 -0.00002408,-0.00010513,0.00477041,-0.00029088,0.00018100,-0.06315364,
 0.00112733,-0.00159899,0.13531648,0.01243821,-0.02325229,0.00006422,0.
 00001853,0.03926201,-0.00010468,-0.17538924,0.04824322,-0.00035819,0.6
 8851998,0.00231769,-0.04139152,0.00008786,0.06208628,0.01749729,0.0001
 1567,0.05227991,-0.26159930,0.00070994,0.00790112,0.66636711,0.0000542
 4,0.00000814,-0.00084325,-0.00011696,0.00004683,-0.00409174,-0.0005435
 8,0.00068700,-0.05823362,0.00156704,-0.00131268,0.15631594,-0.03463776
 ,0.06303210,-0.00022573,-0.04796071,-0.01970623,-0.00006356,0.05535575
 ,-0.00280216,0.00007294,-0.14341968,-0.05531082,-0.00005226,0.75737992
 ,0.02506557,0.02053018,0.00003055,-0.02238617,-0.00267588,-0.00001881,
 0.00698570,-0.03703037,0.00005340,-0.08565688,-0.24406567,0.00021222,-
 0.05485925,0.69870514,-0.00013351,0.00008860,0.00301913,-0.00005504,-0
 .00004465,0.00274189,0.00011334,0.00010538,0.00138348,-0.00006623,0.00
 017952,-0.06311144,0.00182120,-0.00120262,0.12708225,-0.12651053,0.037
 00302,-0.00016598,0.05895072,0.00844559,0.00009047,-0.03947349,0.00719
 459,-0.00008232,-0.05945346,-0.05081375,-0.00007459,-0.41101890,0.0476
 4718,-0.00107993,0.70993523,0.06755738,-0.24219785,0.00041464,-0.02617
 495,-0.05228707,0.00002052,0.02830240,-0.00222295,0.00005182,-0.011464
 52,0.03150560,-0.00008474,-0.00017118,-0.12798750,0.00017902,-0.054573
 80,0.53048650,-0.00028616,0.00035834,-0.05143826,0.00019576,0.00012601
 ,-0.00063366,-0.00014740,0.00003710,0.00045150,-0.00014175,-0.00017465
 ,0.00363497,-0.00096388,0.00024540,-0.05275259,0.00156047,-0.00063536,
 0.14025635,-0.00841866,0.02351655,-0.00007238,-0.05058251,-0.03948648,
 -0.00000902,-0.16240567,-0.04034707,-0.00006900,0.07740735,-0.01343388
 ,0.00029543,-0.02059487,-0.00423481,-0.00005301,0.01684382,-0.01401299
 ,0.00005949,0.73680173,0.01033613,0.01299482,0.00001494,-0.03276092,0.
 01069052,-0.00009883,-0.07264135,-0.20608903,0.00033363,0.00640005,-0.
 04057790,0.00013591,-0.00274633,-0.00573758,0.00003358,0.00780195,-0.0
 0580512,0.00002180,-0.02781438,0.64114374,-0.00004131,0.00002163,0.005
 34724,-0.00002938,-0.00011107,0.00162224,0.00000793,0.00039599,-0.0621
 2094,0.00016884,0.00009823,-0.00397584,-0.00005674,0.00003464,0.006561
 70,0.00000584,-0.00002228,-0.00069205,0.00156324,-0.00165129,0.1584458
 3,-0.01132007,0.01786817,-0.00005506,-0.01170271,-0.00109679,-0.000031
 30,-0.00098710,0.05896296,-0.00027011,-0.28437381,0.01790312,-0.000647
 60,-0.05768465,-0.02388179,-0.00011688,0.02629568,-0.01708405,0.000077
 25,-0.06386634,-0.02397029,-0.00008040,0.66106967,-0.00437756,0.006112
 61,-0.00002626,-0.00557667,-0.00716764,0.00004021,0.03756370,0.0183510
 1,0.00006113,0.05657102,-0.11831724,0.00022955,-0.04466619,-0.00113143
 ,-0.00008127,0.00637295,-0.01094037,0.00005035,-0.03602873,-0.00405326
 ,-0.00013990,-0.00478142,0.77714092,-0.00001622,0.00008603,-0.00107570
 ,-0.00006406,0.00001659,0.00648876,-0.00004376,0.00019968,0.00272118,-
 0.00076745,0.00015946,-0.06382217,-0.00013955,-0.00008656,0.00433203,0
 .00007781,-0.00003690,0.00503127,-0.00024094,-0.00006555,0.00128383,0.
 00163546,-0.00239883,0.12574473,-0.00439226,-0.00215402,-0.00003007,-0
 .00082201,-0.00068770,0.00000243,-0.00196813,-0.00260961,-0.00001091,0
 .01036433,-0.01746069,0.00005205,-0.11265853,0.11429400,-0.00041246,-0
 .00999448,0.02826721,-0.00008253,0.00065353,-0.00072214,0.00000491,0.0
 0100534,-0.00098781,0.00002024,0.11913220,-0.00072272,0.00102845,0.000
 00585,-0.00076258,-0.00036732,-0.00000302,-0.00296365,-0.00146607,-0.0
 0000161,0.01070437,-0.01695681,0.00007186,0.11662532,-0.29057810,0.000
 75759,0.00219220,0.00225418,0.00000849,0.00108084,-0.00040622,0.000007
 74,0.00154399,0.00130781,-0.00000656,-0.12291808,0.30734146,-0.0000306
 0,0.00000927,0.00754809,-0.00001772,-0.00000710,-0.00130677,0.00000700
 ,0.00000068,0.00462774,0.00002885,0.00002649,0.00254574,-0.00044395,0.
 00072518,-0.03521414,-0.00001254,0.00006292,0.00314988,-0.00000714,-0.
 00000306,-0.00006794,0.00000048,-0.00001671,-0.00256378,0.00045625,-0.
 00080827,0.02544553,-0.00096017,-0.00232124,-0.00000156,0.00110141,0.0
 0095155,-0.00000705,-0.00128204,-0.00458192,0.00007454,-0.03461747,-0.
 03084443,-0.00012956,-0.00287456,0.00434686,-0.00005918,-0.00237321,0.
 00082472,0.00000168,-0.01677466,0.03783834,-0.00023335,-0.20272320,-0.
 14602402,0.00025158,0.00018645,0.00002713,-0.00000491,0.55638446,0.009
 22355,-0.01808147,0.00005515,0.01832998,0.00161143,0.00002890,-0.02203
 159,-0.05106062,0.00013969,-0.08324052,0.01231387,-0.00026365,0.028738
 23,0.01617556,0.00002475,-0.02274810,0.01416611,-0.00007015,0.09830713
 ,0.01507014,0.00020233,-0.08485743,-0.30455511,0.00062308,0.00022653,-
 0.00001781,0.00000792,0.04776429,0.69877174,-0.00009875,0.00002401,-0.
 00015540,-0.00000565,0.00001699,-0.00021785,-0.00001649,0.00013681,-0.
 00118608,0.00023910,0.00001533,0.00364666,-0.00013725,-0.00003772,0.00
 630602,0.00007348,-0.00004695,-0.00031093,-0.00038390,-0.00008550,-0.0
 0124359,-0.00002897,0.00020566,-0.05316782,-0.00000447,0.00000902,-0.0
 0023861,-0.00009456,-0.00164300,0.14142114,0.00466753,-0.01405638,0.00
 004615,0.01993439,-0.00068636,0.00002967,-0.04613162,-0.04812061,-0.00
 004532,-0.04967674,0.01170396,-0.00011662,0.01528180,0.00840910,0.0000
 1379,-0.01461335,0.00917516,-0.00005721,-0.35883095,0.03018326,-0.0006
 9981,0.06483048,0.01603594,0.00025078,0.00002586,-0.00018494,0.0000075
 0,-0.14770791,0.03356506,-0.00026015,0.72827715,-0.00349089,0.01292535
 ,-0.00003781,-0.01505023,-0.01081743,0.00001201,-0.00988897,0.03487321
 ,-0.00012411,0.03852818,-0.00595463,0.00019953,-0.01441525,-0.00807944
 ,-0.00001919,0.01223657,-0.00958968,0.00004011,-0.03796923,-0.12344519
 ,0.00015010,-0.03500099,-0.06056520,-0.00002560,-0.00009549,0.00011282
 ,-0.00000391,0.09400337,-0.28145262,0.00138575,0.03016373,0.72340427,0
 .00003913,-0.00013725,-0.00015696,0.00013625,0.00006977,0.00501229,-0.
 00013569,-0.00033317,0.00482486,-0.00045962,0.00003510,-0.00029692,0.0
 0018015,0.00006900,-0.00171804,-0.00012489,0.00011211,0.00010892,-0.00
 057949,0.00047151,-0.06480551,0.00050140,0.00041730,0.00447164,-0.0000
 0029,-0.00000595,0.00004429,-0.00036768,0.00083756,-0.05008192,0.00153
 166,-0.00168737,0.11528337,-0.00012863,-0.00009441,0.00000060,0.000427
 25,0.00152360,-0.00000372,-0.00464117,-0.00122737,-0.00006325,-0.00901
 833,0.02709970,-0.00010088,0.00136794,0.00136619,0.00001355,0.00020275
 ,-0.00007036,0.00000294,-0.00124548,-0.00009772,0.00003436,-0.10955466
 ,0.11229225,-0.00079097,-0.00036971,-0.00104124,-0.00000420,0.01211373
 ,-0.01542028,0.00016849,-0.00210676,-0.00329131,-0.00008128,0.11294137
 ,0.00001809,0.00021127,-0.00000242,-0.00039641,0.00005393,0.00000137,-
 0.00055259,0.00101306,0.00001555,-0.00140604,0.00243133,0.00001184,-0.
 00137250,0.00077539,-0.00002452,0.00023689,0.00003581,0.00000073,-0.00
 053281,0.00016568,0.00000135,0.11120311,-0.29412906,0.00149148,0.00012
 088,0.00007176,0.00000596,0.01099824,-0.01915274,0.00017921,-0.0036869
 9,-0.00181727,0.00001120,-0.11903645,0.31140412,-0.00000164,0.00000328
 ,-0.00001107,-0.00000241,0.00000225,0.00011837,-0.00001287,0.00003058,
 0.00550539,0.00000649,0.00004874,0.00212489,0.00000552,-0.00000633,-0.
 00310168,0.00000898,-0.00000773,-0.00011535,-0.00000350,-0.00001180,-0
 .00131977,-0.00074161,0.00164641,-0.03384645,-0.00000920,-0.00000315,0
 .00007232,-0.00004008,0.00002321,0.00236274,-0.00002382,-0.00000672,0.
 00726731,0.00057538,-0.00182065,0.02500450,-0.00052230,-0.00010380,0.0
 0000121,0.00035554,-0.00133381,-0.00000033,-0.00518849,0.00181964,-0.0
 0004794,-0.00084888,0.00061937,-0.00000450,0.00037930,0.00001716,0.000
 00267,-0.00024056,0.00026142,0.00000041,-0.01351119,-0.02701800,-0.000
 02137,-0.00096674,0.00324219,-0.00003691,-0.00001424,-0.00003597,0.000
 00047,0.01235120,0.01112922,-0.00002193,-0.15218385,-0.13375083,-0.000
 05643,0.00057908,0.00060956,-0.00000010,0.15686895,-0.00013209,-0.0000
 1059,-0.00000074,0.00028550,0.00025002,-0.00000306,0.00112156,0.000426
 24,0.00000610,0.00071476,0.00026255,0.00000302,-0.00018294,-0.00001046
 ,0.00000372,0.00007004,-0.00004832,-0.00000080,0.00361891,0.00509127,0
 .00002278,0.00360506,-0.00307540,0.00001996,0.00002503,0.00003257,-0.0
 0000007,-0.01586187,-0.01719751,-0.00000282,-0.13561768,-0.25076846,-0
 .00011793,-0.00086633,-0.00073616,0.00000338,0.14488101,0.26452998,0.0
 0000873,0.00000414,-0.00052042,-0.00000215,-0.00000333,0.00005855,-0.0
 0001342,0.00001147,0.00648118,0.00000468,-0.00000307,-0.00127576,-0.00
 000261,0.00000011,-0.00034702,0.00000015,-0.00000273,0.00006758,-0.000
 02705,-0.00006492,0.00592258,-0.00006079,0.00003440,0.00606593,-0.0000
 0024,-0.00000017,0.00004174,0.00003769,0.00005352,-0.00054855,-0.00014
 790,-0.00021146,-0.03241046,0.00001432,0.00000963,0.00048964,0.0001875
 9,0.00021334,0.02266752,-0.21970635,-0.03503508,-0.00014015,-0.0505054
 6,-0.04379612,0.00001067,0.00246367,-0.00624359,0.00003785,-0.01011858
 ,-0.00485436,-0.00002817,0.01559267,0.00710991,0.00001863,-0.04099773,
 0.02683081,-0.00006347,0.00324857,-0.00262504,0.00000595,0.00893045,0.
 00380323,0.00001968,-0.00050110,-0.00014154,-0.00000464,0.00012350,-0.
 00745583,0.00006407,-0.00431031,0.00224799,-0.00003383,0.00008512,-0.0
 0001907,0.00000191,-0.00006954,0.00013170,-0.00000349,0.52273339,-0.02
 862982,-0.11492429,0.00008447,-0.02296669,0.01849280,-0.00004474,-0.00
 615297,-0.00534509,0.00000641,0.00308664,-0.00064767,-0.00000398,-0.00
 161888,-0.00692204,0.00001962,0.04336207,-0.00126101,0.00004000,-0.000
 62900,0.00155884,-0.00001315,-0.00201476,-0.00017118,-0.00000827,0.001
 63130,0.00018622,0.00001236,0.00110638,0.00079079,0.00000392,-0.000149
 94,-0.00058112,0.00001469,-0.00006412,-0.00000729,0.00000020,-0.000146
 40,0.00001504,-0.00000157,-0.16038151,0.63629412,-0.00010087,0.0000670
 1,-0.04389379,0.00000960,-0.00005900,0.01218860,-0.00001835,0.00000724
 ,0.00332528,-0.00002466,-0.00002389,-0.00123748,0.00003444,0.00004172,
 0.00493175,-0.00013322,0.00003619,-0.00599680,0.00002146,-0.00000449,-
 0.00020542,0.00002405,0.00000994,-0.00024912,-0.00000643,0.00000318,0.
 00125175,0.00000650,-0.00002776,-0.00009836,-0.00001789,0.00001081,-0.
 00013392,-0.00000030,0.00000113,0.00010117,-0.00000013,0.00000052,0.00
 011438,0.00038468,-0.00051714,0.04876553,-0.05988844,0.06902703,-0.000
 07448,0.01846539,-0.01289382,0.00005284,-0.00462451,0.00393617,-0.0000
 2240,0.00155004,-0.00142027,0.00000112,-0.00012148,0.00291920,-0.00000
 661,-0.00424760,-0.00528421,-0.00000619,0.00318037,-0.00179410,0.00001
 085,-0.00065959,0.00027471,-0.00000467,-0.00033388,-0.00009769,0.00000
 014,0.00135087,-0.00068051,0.00002847,-0.00101828,0.00087112,-0.000006
 50,0.00004135,-0.00003133,-0.00000041,0.00009415,0.00002659,-0.0000015
 0,-0.17422924,0.12645875,-0.00019833,0.57921582,0.06401520,-0.00100985
 ,0.00001880,-0.01239551,-0.02737929,0.00004202,0.00036014,0.00044182,0
 .00001371,-0.00647626,-0.00340929,-0.00000831,0.00798815,0.00198264,0.
 00001241,-0.00914832,0.01116769,-0.00001729,0.00289066,-0.00163568,0.0
 0001261,0.00510617,0.00222732,0.00001084,0.00018186,0.00016944,-0.0000
 0026,-0.00041384,-0.00416285,0.00002754,-0.00247206,0.00177003,-0.0000
 2888,-0.00002916,0.00000885,0.00000043,-0.00000522,0.00005584,-0.00000
 038,0.12006967,-0.51040569,0.00034951,-0.14284729,0.64506842,-0.000094
 45,-0.00000394,-0.02143120,0.00001069,0.00009084,-0.00291046,0.0000077
 9,0.00000508,0.00503005,0.00001730,0.00001667,-0.00020365,-0.00003234,
 -0.00001039,0.00055071,0.00001293,-0.00001920,0.00401759,-0.00001704,0
 .00000708,0.00022056,-0.00001556,-0.00001008,-0.00039196,-0.00000047,-
 0.00000020,-0.00029955,-0.00000453,0.00001837,0.00017783,0.00001227,-0
 .00001116,-0.00061603,0.00000009,-0.00000045,-0.00005223,0.00000002,0.
 00000002,0.00004336,-0.00013432,0.00040519,-0.00208622,0.00024581,-0.0
 0026351,0.07007132,0.01451758,-0.00230789,0.00001993,-0.00732666,0.005
 66430,-0.00001918,0.00325867,-0.00015496,0.00000069,-0.00003901,0.0014
 9025,0.00000654,-0.00200447,-0.00101381,-0.00000582,0.00037694,-0.0004
 6239,0.00000798,-0.00211711,0.00122002,-0.00000395,-0.00076338,-0.0007
 0804,0.00000105,-0.00014711,0.00000691,-0.00000194,-0.00139480,0.00163
 903,-0.00003883,0.00122197,-0.00087170,0.00000968,-0.00006276,0.000044
 51,-0.00000005,-0.00005365,-0.00004722,0.00000220,-0.06167973,0.057713
 24,0.00000542,-0.22283702,-0.03096667,-0.00015011,0.63732923,0.0001988
 9,-0.00455135,0.00001261,0.00297374,-0.00404001,0.00000547,-0.00077840
 ,0.00076530,-0.00000243,0.00003933,-0.00023987,0.00000730,-0.00010331,
 -0.00025454,-0.00000141,0.00164147,0.00005445,0.00000372,0.00049854,-0
 .00021116,0.00000416,-0.00010927,0.00006045,-0.00000354,0.00010123,0.0
 0000187,0.00000037,0.00003944,-0.00003411,0.00000441,-0.00018806,0.000
 06335,-0.00000701,-0.00001647,0.00000495,-0.00000055,-0.00000076,-0.00
 000131,0.00000090,0.06747398,-0.00580655,0.00002234,-0.04025907,-0.119
 14928,-0.00010007,-0.01094603,0.71825157,-0.00001231,0.00001596,0.0173
 9967,-0.00000572,-0.00002011,0.00073434,0.00000095,-0.00000409,-0.0027
 0473,-0.00000351,0.00000086,0.00032650,0.00000696,-0.00000098,-0.00062
 475,-0.00000104,0.00000935,0.00131783,0.00000375,-0.00000314,0.0001339
 5,0.00000447,0.00000118,0.00013172,0.00000092,-0.00000112,-0.00021025,
 -0.00000140,-0.00000244,0.00001807,-0.00000003,0.00000241,0.00014797,0
 .00000027,-0.00000042,-0.00000541,0.00000010,-0.00000023,-0.00002290,-
 0.00001636,-0.00001846,-0.01759081,0.00000528,-0.00008053,-0.04748925,
 -0.00026566,0.00151873,0.14879884,-0.00243885,0.00196866,-0.00001636,0
 .00189927,-0.00170526,0.00000124,-0.00089613,-0.00011731,0.00000061,-0
 .00016752,-0.00052657,-0.00000139,0.00088071,0.00052388,0.00000159,-0.
 00074507,0.00025069,-0.00000488,0.00073432,-0.00046080,0.00000263,0.00
 045338,0.00030468,0.00000053,0.00001568,-0.00000504,0.00000066,0.00045
 602,-0.00069642,0.00001557,-0.00047298,0.00033268,-0.00000600,0.000023
 96,-0.00001456,0.00000005,0.00001754,0.00001696,-0.00000059,0.00045365
 ,-0.00800122,0.00002060,-0.04498359,0.04979103,0.00014174,-0.13612021,
 0.03242966,0.00004803,0.73292452,0.00074314,-0.00066144,-0.00000816,-0
 .00200403,0.00342545,-0.00000640,0.00106106,0.00001683,-0.00000169,0.0
 0052190,0.00076896,0.00000915,-0.00147675,-0.00047988,-0.00000222,0.00
 063842,-0.00092915,0.00000152,-0.00105207,0.00072405,0.00000156,-0.000
 78233,-0.00048761,-0.00000174,-0.00009636,-0.00000683,-0.00000090,-0.0
 0058437,0.00104785,-0.00001681,0.00067387,-0.00051089,0.00000094,-0.00
 003104,0.00001994,-0.00000055,-0.00002661,-0.00002603,0.00000162,-0.00
 851274,0.00988473,-0.00000935,0.02649950,-0.00672377,-0.00001333,0.089
 79016,-0.30165971,-0.00089630,0.03439628,0.71719755,-0.00000338,-0.000
 00169,0.00129738,-0.00000701,0.00001113,-0.00033317,0.00000574,0.00000
 043,0.00020409,0.00000539,0.00000162,-0.00007279,-0.00000492,-0.000001
 97,-0.00013497,0.00000138,-0.00000550,-0.00002776,-0.00000423,0.000003
 83,-0.00003048,-0.00000752,-0.00000204,0.00002963,0.00000016,0.0000000
 9,-0.00001463,0.00000056,0.00000217,-0.00003661,0.00000124,-0.00000272
 ,0.00002998,-0.00000027,0.00000087,0.00000073,-0.00000003,0.00000009,-
 0.00000373,-0.00002459,0.00002009,0.00305292,0.00003284,-0.00001470,-0
 .00238249,0.00045358,-0.00086404,-0.06511196,-0.00018588,0.00233772,0.
 14329597,0.00095927,0.00071025,0.00002403,0.00238259,-0.00521997,0.000
 01561,-0.00125279,0.00000095,-0.00000295,-0.00063813,-0.00090167,-0.00
 001198,0.00162392,0.00070399,0.00000292,-0.00088419,0.00100680,-0.0000
 0518,0.00122448,-0.00080873,-0.00000030,0.00089386,0.00056092,0.000005
 42,0.00006848,0.00000423,0.00000073,0.00059372,-0.00118487,0.00001518,
 -0.00081653,0.00054980,0.00000038,0.00002962,-0.00001808,0.00000044,0.
 00002274,0.00002946,-0.00000205,0.00319114,-0.01497419,-0.00005751,-0.
 06050608,-0.02320965,-0.00000152,-0.15959031,-0.04746806,-0.00017307,0
 .05579033,-0.03190224,-0.00017916,0.71763943,0.00020899,0.00031848,0.0
 0000900,0.00105082,-0.00230113,0.00000965,-0.00077874,-0.00018624,0.00
 000147,-0.00043705,-0.00057720,-0.00001341,0.00121116,0.00041731,0.000
 00184,-0.00069596,0.00077051,-0.00000384,0.00075627,-0.00053043,-0.000
 00365,0.00064090,0.00038331,0.00000466,0.00006172,0.00000908,0.0000007
 3,0.00045623,-0.00083571,0.00000875,-0.00052619,0.00038667,0.00000532,
 0.00002804,-0.00001715,0.00000077,0.00001897,0.00002218,-0.00000216,0.
 00134446,-0.00715352,-0.00001184,-0.01635449,0.01799890,0.00001768,-0.
 10041794,-0.25798316,-0.00031596,0.01023072,-0.05498924,-0.00029654,-0
 .04757528,0.72593963,-0.00000695,0.00000184,0.00061605,-0.00000715,0.0
 0001999,0.00014232,0.00000320,0.00000142,-0.00016328,0.00000239,0.0000
 0104,-0.00000519,-0.00000730,-0.00000383,-0.00011422,0.00000314,-0.000
 00338,0.00001400,-0.00000361,0.00000441,-0.00007381,-0.00000511,-0.000
 00030,0.00003908,-0.00000005,0.00000025,0.00000738,-0.00000035,0.00000
 368,-0.00002730,0.00000239,-0.00000269,0.00005419,-0.00000013,-0.00000
 019,0.00001214,-0.00000020,-0.00000008,0.00000225,-0.00001010,-0.00000
 947,-0.00161359,0.00004510,0.00002851,0.00675665,-0.00021313,-0.000416
 09,-0.06949660,-0.00000119,-0.00006588,0.00661478,-0.00036824,0.001174
 02,0.14276980,-0.00042297,-0.00094746,-0.00000768,-0.00167271,0.003462
 28,-0.00000329,0.00090438,0.00010301,-0.00000180,0.00070782,0.00078439
 ,0.00001168,-0.00166386,-0.00053629,-0.00000332,0.00091348,-0.00110951
 ,0.00000258,-0.00109241,0.00078718,0.00000199,-0.00095569,-0.00055111,
 -0.00000228,-0.00009245,-0.00001008,-0.00000082,-0.00057551,0.00117511
 ,-0.00001646,0.00073120,-0.00055551,-0.00000064,-0.00003410,0.00001987
 ,-0.00000064,-0.00002782,-0.00002856,0.00000214,-0.00442542,0.00484378
 ,-0.00000012,0.01416471,-0.00128139,0.00001525,-0.03000390,0.07977043,
 0.00038827,-0.36282539,-0.00747448,0.00022667,-0.05088866,-0.02760159,
 -0.00000202,0.72268094,-0.00105918,-0.00099537,0.00000559,-0.00083717,
 0.00250489,-0.00000238,0.00052344,0.00010950,-0.00000014,0.00051445,0.
 00051148,0.00000018,-0.00110473,-0.00042913,-0.00000256,0.00081273,-0.
 00076612,0.00000708,-0.00069358,0.00050406,-0.00000461,-0.00066959,-0.
 00036742,-0.00000105,-0.00003813,-0.00000254,-0.00000066,-0.00033067,0
 .00077669,-0.00001681,0.00048035,-0.00034324,0.00001034,-0.00001852,0.
 00000998,0.00000015,-0.00001673,-0.00001525,-0.00000003,0.00111494,0.0
 0226474,-0.00000495,0.00850739,-0.00597269,-0.00004605,0.02389778,0.02
 374815,0.00010887,0.06287603,-0.13741986,-0.00054743,-0.01737910,-0.01
 180387,-0.00003598,-0.04693153,0.71547715,0.00000723,0.00001401,-0.000
 63336,0.00003191,-0.00006467,0.00013020,-0.00001891,-0.00000251,0.0000
 1071,-0.00001592,-0.00001459,-0.00002800,0.00003107,0.00000963,0.00009
 849,-0.00001296,0.00002085,-0.00016157,0.00002110,-0.00001542,0.000005
 95,0.00002231,0.00001139,0.00000952,0.00000149,0.00000045,0.00002447,0
 .00001070,-0.00002095,0.00000375,-0.00001415,0.00001173,-0.00000449,0.
 00000107,-0.00000129,-0.00000205,0.00000021,0.00000063,0.00000018,0.00
 007630,-0.00010313,0.00026559,-0.00020975,0.00001532,0.00680205,0.0004
 3993,-0.00061811,0.00628099,-0.00034913,-0.00005243,-0.05918322,0.0003
 2510,0.00023827,-0.00104009,0.00012692,0.00249530,0.12690541,0.0001739
 0,0.00004587,-0.00000006,-0.00006062,-0.00010361,-0.00000007,-0.000011
 03,-0.00002213,0.00000025,-0.00007020,-0.00004092,-0.00000291,0.000132
 56,0.00001338,0.00000050,-0.00007604,0.00011301,0.00000004,0.00005532,
 -0.00005700,-0.00000059,0.00007805,0.00003882,0.00000095,0.00001003,0.
 00000199,0.00000011,0.00003691,-0.00008389,-0.00000003,-0.00004072,0.0
 0004198,0.00000158,0.00000316,-0.00000123,0.00000014,0.00000216,0.0000
 0276,-0.00000035,-0.00014468,-0.00062175,0.00000256,0.00105297,0.00064
 927,0.00000297,0.01080260,0.01047561,0.00002929,-0.15609378,-0.1334271
 9,-0.00047405,-0.00055966,0.00245362,0.00000767,-0.01238268,-0.0259149
 9,-0.00013442,0.16215383,-0.00009783,0.00002587,0.00000142,0.00013468,
 -0.00014723,0.00000096,-0.00003957,0.00002976,0.00000088,0.00001531,-0
 .00000762,-0.00000340,-0.00001959,0.00001533,0.00000034,0.00001692,-0.
 00004020,-0.00000054,0.00001640,-0.00000106,-0.00000175,-0.00001809,-0
 .00000109,0.00000092,-0.00000104,-0.00000019,0.00000007,0.00000810,0.0
 0000085,-0.00000229,-0.00001138,0.00000131,0.00000330,-0.00000002,0.00
 000017,0.00000017,-0.00000100,0.00000102,-0.00000045,0.00067123,0.0002
 0452,-0.00000002,-0.00272409,0.00219585,0.00003424,-0.01901474,-0.0173
 1646,-0.00009577,-0.13320322,-0.24659820,-0.00084949,0.00356197,-0.004
 21437,-0.00003908,0.00418774,0.00729550,0.00001042,0.14434050,0.256945
 84,0.00000680,0.00000036,0.00018981,-0.00000293,0.00000040,-0.00007940
 ,0.00000050,0.00000047,-0.00006867,0.00000022,-0.00000048,0.00000725,-
 0.00000059,-0.00000031,-0.00003252,0.00000005,0.00000045,0.00009540,-0
 .00000049,0.00000030,0.00001116,0.,0.00000008,0.00001268,-0.00000004,0
 .00000003,-0.00000824,-0.00000074,0.00000087,0.00000105,0.00000066,-0.
 00000020,0.00000085,0.,-0.00000011,0.00000180,0.,-0.00000007,0.0000003
 3,-0.00001554,0.00001936,0.00005627,0.00002348,0.00001264,-0.00435517,
 -0.00013099,-0.00003618,0.00499765,-0.00047434,-0.00092061,-0.03924945
 ,0.00000863,-0.00003562,0.00542508,0.00005083,0.00002234,0.00465130,0.
 00055728,0.00094435,0.02653043,-0.00214703,-0.00088789,-0.00001611,-0.
 00104367,0.00394267,-0.00001458,0.00078578,0.00017410,0.00000277,0.000
 82379,0.00078550,0.00001456,-0.00176279,-0.00057624,-0.00000306,0.0011
 1707,-0.00131480,0.00000444,-0.00105421,0.00079929,0.00000188,-0.00102
 557,-0.00057627,-0.00000421,-0.00008692,-0.00001313,-0.00000087,-0.000
 54810,0.00121308,-0.00001389,0.00073620,-0.00055567,-0.00000439,-0.000
 03444,0.00001979,-0.00000100,-0.00002571,-0.00002967,0.00000260,0.0010
 3504,0.00552225,0.00002776,0.01513569,-0.00579717,-0.00001322,-0.05235
 573,-0.07002239,-0.00007478,-0.04147875,0.03223228,0.00018936,-0.37447
 949,0.05917774,0.00030808,0.05842795,0.00452797,-0.00033972,-0.0005866
 9,0.00079790,0.00000237,0.74618156,0.00222978,0.00155629,0.00000965,0.
 00138705,-0.00432254,0.00000904,-0.00074372,-0.00003761,-0.00000159,-0
 .00081907,-0.00076418,-0.00000571,0.00165913,0.00058439,0.00000316,-0.
 00111365,0.00122762,-0.00000464,0.00106003,-0.00079516,0.00000260,0.00
 099864,0.00055526,0.00000148,0.00007428,0.00000878,0.00000073,0.000484
 15,-0.00115827,0.00001914,-0.00071647,0.00053219,-0.00000602,0.0000276
 3,-0.00001503,0.00000030,0.00002546,0.00002524,-0.00000111,0.00217971,
 -0.00369904,-0.00002362,-0.01609800,-0.00440082,0.00001341,-0.00950771
 ,0.04583116,0.00001443,0.02400820,-0.02250775,-0.00009402,-0.01227942,
 -0.13605601,0.00001821,-0.02544231,-0.04313732,-0.00018591,0.00056647,
 0.00024477,0.00003964,0.04156719,0.68797442,0.00003848,0.00001831,-0.0
 0031811,0.00003333,-0.00009890,0.00002814,-0.00002074,-0.00000456,0.00
 006154,-0.00001856,-0.00001966,-0.00003953,0.00004213,0.00001422,0.000
 12886,-0.00002143,0.00002985,-0.00007784,0.00002609,-0.00002037,0.0000
 1614,0.00002775,0.00001293,-0.00002050,0.00000189,0.00000008,0.0000097
 0,0.00001097,-0.00002742,0.00001406,-0.00001751,0.00001353,-0.00001300
 ,0.00000068,-0.00000045,-0.00000741,0.00000069,0.00000051,-0.00000245,
 0.00002456,-0.00012835,0.00011665,-0.00032994,0.00006526,0.00523820,0.
 00048087,0.00083441,0.00733946,0.00043244,-0.00038621,-0.00221795,-0.0
 0071038,-0.00038143,-0.05890177,-0.00045384,-0.00007469,0.00621318,0.0
 0001383,0.00000191,-0.00120119,0.00071879,0.00124179,0.12829894,0.0001
 1917,0.00039249,0.00000071,0.00003561,-0.00003900,0.00000010,0.0000096
 7,0.00001589,0.00000024,-0.00001655,-0.00000139,-0.00000065,0.00001843
 ,-0.00002489,0.00000015,-0.00005641,0.00003801,-0.00000055,0.00000969,
 -0.00001484,-0.00000004,0.00001517,0.00000318,0.00000102,0.00000626,0.
 00000256,0.00000009,0.00000473,-0.00001251,-0.00000066,-0.00000397,0.0
 0000782,0.00000039,0.00000122,0.00000015,-0.00000003,0.00000163,0.0000
 0022,-0.00000012,-0.00202622,-0.00238354,-0.00002745,-0.00034309,0.002
 37090,0.00000170,0.01497029,-0.01554597,-0.00003337,-0.00240140,-0.003
 12862,-0.00001278,-0.10527472,0.10582827,0.00026542,-0.00066980,-0.000
 37702,0.00000888,0.00029482,-0.00101705,-0.00000644,-0.00756755,0.0280
 1491,0.00003253,0.10891429,-0.00000190,0.00085691,-0.00000181,0.000230
 84,-0.00011794,0.00000111,0.00004273,0.00009190,-0.00000065,-0.0000522
 7,-0.00001343,-0.00000041,0.00004824,-0.00002161,-0.00000033,-0.000082
 81,0.00005523,0.00000085,0.00004175,-0.00004944,0.00000129,0.00004063,
 0.00001964,0.00000092,0.00001015,-0.00000063,0.00000014,0.00000411,-0.
 00003165,0.00000063,-0.00000363,0.00003259,-0.00000134,0.00000049,-0.0
 0000051,-0.00000003,0.00000384,0.00000019,-0.00000001,0.00023633,0.000
 14918,0.00000589,0.00241890,-0.00064957,0.00000087,0.01156083,-0.01818
 787,-0.00003058,-0.00386917,-0.00244227,-0.00001289,0.10591749,-0.3017
 0579,-0.00050178,-0.00042866,0.00050529,0.00000697,0.00060430,-0.00084
 966,-0.00000321,-0.00144777,0.00296714,0.00000290,-0.11640587,0.318689
 38,0.00000474,0.00000420,-0.00038086,-0.00000095,0.00000127,-0.0001305
 8,0.00000163,0.00000083,0.00011202,0.00000006,0.00000056,-0.00002840,-
 0.00000042,-0.00000023,-0.00002461,-0.00000157,-0.00000080,0.00019529,
 -0.00000055,-0.00000018,-0.00001943,-0.00000038,-0.00000036,0.00000419
 ,-0.00000001,0.00000008,-0.00001293,-0.00000027,0.00000043,-0.00001330
 ,0.00000037,0.00000017,0.00000628,-0.00000002,0.00000007,-0.00000006,0
 .00000003,0.00000006,0.00000305,-0.00004872,-0.00000064,0.00085110,0.0
 0002541,0.00000144,-0.00410895,-0.00001283,-0.00007502,0.00519843,-0.0
 0000645,-0.00001997,0.00551446,0.00025452,-0.00044853,-0.04043911,-0.0
 0000990,-0.00003536,-0.00124153,-0.00000158,-0.00000298,0.00034763,0.0
 0004674,-0.00002793,0.00503519,-0.00025678,0.00052585,0.02749699,0.003
 43230,0.00158811,-0.00004713,0.00193769,-0.00657178,0.00000323,-0.0012
 7845,-0.00024531,0.00000603,-0.00143762,-0.00134448,0.00000228,0.00299
 691,0.00094029,0.00000467,-0.00183198,0.00224437,-0.00000547,0.0018277
 7,-0.00137627,0.00000907,0.00181505,0.00098817,-0.00000210,0.00015113,
 0.00001601,0.00000136,0.00088593,-0.00207628,0.00004331,-0.00124675,0.
 00094205,-0.00002462,0.00005084,-0.00002914,0.00000014,0.00004780,0.00
 004196,-0.00000011,0.00113406,-0.00662444,0.00007125,-0.01764728,0.003
 51081,-0.00001869,0.02519171,-0.00655803,-0.00026719,-0.04956687,-0.02
 000894,0.00056318,-0.02618309,0.03568062,0.00061178,-0.16847689,-0.103
 34685,0.00053119,-0.00452187,0.00220726,0.00001751,-0.14178771,0.07656
 084,0.00106178,-0.00501447,-0.00088647,-0.00001466,0.70727156,-0.00151
 955,-0.00042150,-0.00000828,-0.00003868,0.00151476,-0.00000506,0.00015
 679,0.00006256,-0.00000284,0.00032033,0.00023572,0.00000936,-0.0005849
 8,-0.00019018,-0.00000186,0.00044475,-0.00050117,0.00000138,-0.0003053
 1,0.00026183,0.00000302,-0.00035301,-0.00018885,-0.00000327,-0.0000239
 1,-0.00000509,-0.00000018,-0.00014538,0.00038805,-0.00000140,0.0002252
 2,-0.00017455,-0.00000452,-0.00001044,0.00000538,-0.00000050,-0.000007
 48,-0.00000992,0.00000130,0.00282253,0.00183667,0.00003298,0.00391462,
 -0.00364554,-0.00003749,-0.01229100,-0.07887393,-0.00017491,-0.0753785
 0,0.05360087,0.00048607,0.08937013,0.03258944,-0.00035602,-0.04130913,
 -0.26163667,-0.00075263,0.00185813,0.00134216,-0.00003130,0.01381408,-
 0.27670121,-0.00060051,-0.00043067,0.00153311,-0.00000716,0.00340835,0
 .68769841,0.00036097,0.00014695,0.00065766,0.00012561,-0.00054204,0.00
 011140,-0.00008995,-0.00001894,-0.00011936,-0.00012139,-0.00010390,0.0
 0003778,0.00024047,0.00007781,-0.00004511,-0.00016085,0.00018463,-0.00
 005258,0.00014351,-0.00011014,-0.00003356,0.00014458,0.00007862,-0.000
 00359,0.00001121,0.00000126,-0.00000279,0.00006708,-0.00016882,-0.0000
 0433,-0.00009986,0.00007358,0.00002633,0.00000351,-0.00000143,0.000002
 94,0.00000434,0.00000319,-0.00000220,-0.00004882,-0.00034926,-0.001429
 99,-0.00107996,0.00007811,0.00021765,0.00166389,-0.00014336,-0.0061765
 3,-0.00119790,0.00014664,0.00108062,-0.00059643,0.00031799,0.00115895,
 0.00128700,0.00155817,-0.07054647,-0.00008420,0.00001949,0.00819398,0.
 00092002,-0.00289560,-0.07057627,-0.00010698,-0.00003173,0.00895375,-0
 .00853126,0.00225218,0.17083154,-0.00024744,0.00002996,0.00000297,-0.0
 0002533,0.00024594,0.00000008,0.00002583,0.00000619,0.00000046,0.00007
 093,0.00005257,-0.00000398,-0.00013403,-0.00001440,0.00000002,0.000044
 86,-0.00012851,0.00000005,-0.00007106,0.00006210,-0.00000242,-0.000085
 06,-0.00004083,0.00000095,-0.00001135,-0.00000049,-0.00000002,-0.00002
 871,0.00008532,-0.00000424,0.00004358,-0.00003917,0.00000513,-0.000001
 19,0.00000045,0.00000024,-0.00000300,-0.00000052,-0.00000053,-0.000435
 13,0.00016568,0.00000288,-0.00022543,0.00157558,0.00000223,-0.00454567
 ,-0.00140478,-0.00000654,-0.00846913,0.03032428,0.00011502,-0.00098555
 ,-0.00037773,0.00000376,-0.10499923,0.10298906,0.00055440,0.00125169,-
 0.00035844,0.00000410,-0.00185729,-0.00321082,-0.00002027,0.00008178,0
 .00009691,-0.00000068,0.00981378,-0.01784895,-0.00008178,0.10815227,0.
 00016967,0.00006984,-0.00000866,0.00003806,-0.00023186,-0.00000032,-0.
 00002951,-0.00000589,-0.00000081,-0.00005214,-0.00004749,0.00000816,0.
 00010373,0.00002527,0.00000023,-0.00005983,0.00009798,-0.00000132,0.00
 006028,-0.00004885,0.00000490,0.00007296,0.00003171,-0.00000164,0.0000
 0527,-0.00000152,-0.00000001,0.00001757,-0.00006695,0.00000700,-0.0000
 3394,0.00002652,-0.00000991,-0.00000041,0.00000024,-0.00000054,0.00000
 278,-0.00000112,0.00000126,-0.00006889,-0.00012226,0.00000051,-0.00039
 634,-0.00003169,0.00000632,0.00007088,0.00224337,-0.00000494,-0.001059
 59,0.00171103,-0.00001794,-0.00113083,0.00001037,-0.00000156,0.1030249
 7,-0.29553242,-0.00086835,0.00023125,0.00072867,0.00001377,-0.00356145
 ,-0.00256412,-0.00003170,0.00006273,-0.00002702,0.00000720,0.01328891,
 -0.01813875,-0.00021462,-0.11109784,0.31134757,0.00000020,-0.00000108,
 -0.00022412,0.00000012,0.00000009,0.00001316,-0.00000032,-0.00000002,0
 .00000927,-0.00000018,0.,0.00000113,0.00000045,0.00000006,0.00001188,-
 0.00000028,0.00000036,-0.00000210,0.00000024,-0.00000014,0.00000072,0.
 00000011,-0.00000013,-0.00000467,0.00000005,-0.00000012,0.00000201,-0.
 00000002,-0.00000036,0.00000310,-0.00000006,0.00000014,-0.00000348,-0.
 00000006,0.00000012,0.00000043,0.00000003,-0.00000002,0.00000084,0.000
 00753,-0.00000238,-0.00012261,0.00000047,-0.00001346,0.00085937,0.0000
 1086,-0.00003777,0.00766300,0.00003569,-0.00006654,0.00244828,0.000040
 30,0.00002020,-0.00092420,0.00041636,-0.00089398,-0.03480881,-0.000008
 79,0.00002527,-0.00476770,-0.00000300,-0.00000943,0.00566658,0.0000000
 5,-0.00000050,-0.00066239,-0.00009845,-0.00012267,0.00423522,-0.000661
 74,0.00096251,0.02415592,-0.00023855,-0.00010092,0.00000638,0.00001054
 ,0.00020540,-0.00000015,0.00001909,0.00002097,0.00000005,0.00008195,0.
 00005821,-0.00000487,-0.00015713,-0.00002059,-0.00000040,0.00009027,-0
 .00014693,0.00000059,-0.00007452,0.00006763,-0.00000327,-0.00010399,-0
 .00004669,0.00000149,-0.00001108,0.,-0.00000002,-0.00003320,0.00009825
 ,-0.00000605,0.00004594,-0.00004343,0.00000717,-0.00000179,0.00000100,
 0.00000032,-0.00000376,-0.00000030,-0.00000077,0.00048999,0.00020776,-
 0.00000428,-0.00096985,-0.00191653,-0.00000061,-0.00449491,0.00225837,
 -0.00001974,-0.00071400,0.00057459,0.00000768,-0.01440995,-0.02670484,
 -0.00006231,-0.00052221,0.00277896,-0.00000503,0.00001117,-0.00012026,
 -0.00000051,-0.15302368,-0.13171365,-0.00021161,0.00141150,0.00014988,
 0.00001286,0.00953185,0.01216743,0.00003703,0.00052640,0.00055409,-0.0
 0000129,0.16032689,-0.00009401,-0.00006119,0.00001174,-0.00004143,0.00
 015732,0.00000085,0.00002197,0.,-0.00000043,0.00003041,0.00003207,-0.0
 0000767,-0.00006273,-0.00001574,0.00000042,0.00003581,-0.00005960,0.00
 000060,-0.00003979,0.00003115,-0.00000451,-0.00004690,-0.00001943,0.00
 000171,-0.00000289,0.00000165,-0.00000003,-0.00000816,0.00004059,-0.00
 000655,0.00001975,-0.00001461,0.00000949,0.00000085,-0.00000051,0.0000
 0049,-0.00000200,0.00000144,-0.00000119,-0.00007607,0.00008133,-0.0000
 1097,0.00050113,0.00027223,0.00000037,0.00130399,0.00164714,-0.0000433
 5,0.00136460,-0.00024924,0.00000736,0.00425569,0.00707009,0.00003046,0
 .00316645,-0.00389155,-0.00002136,-0.00010833,-0.00001026,-0.00000327,
 -0.13170225,-0.24653264,-0.00085213,-0.00029082,0.00076692,0.00002361,
 -0.01907787,-0.01797397,0.00005617,-0.00085243,-0.00095644,0.00000885,
 0.14150573,0.25817083,0.,-0.00000027,-0.00028228,0.00000069,-0.0000024
 2,-0.00004301,-0.00000097,0.00000003,0.00006781,-0.00000037,-0.0000006
 1,-0.00000474,0.00000121,0.00000013,0.00000400,-0.00000007,0.00000136,
 -0.00001387,0.00000084,-0.00000086,-0.00000342,0.00000083,0.00000036,-
 0.00000320,0.00000015,-0.00000007,0.00000057,0.00000046,-0.00000065,0.
 00000149,-0.00000040,0.00000020,-0.00000491,0.00000006,-0.00000004,0.0
 0000033,0.00000007,-0.00000002,0.00000057,-0.00000298,-0.00000544,0.00
 087145,-0.00000516,0.00002305,-0.00033047,0.00003551,-0.00000208,0.008
 26411,0.00004229,-0.00001730,-0.00085646,0.00007497,0.00005271,0.00317
 443,0.00000867,-0.00003871,0.00531308,-0.00000010,0.00000336,-0.000592
 48,-0.00045900,-0.00075121,-0.03556408,-0.00000866,0.00001259,-0.00524
 835,-0.00013518,0.00000121,0.00415143,-0.00000653,-0.00000826,-0.00031
 037,0.00027830,0.00108450,0.02432780,-0.00463003,-0.00200041,-0.000000
 32,-0.00183388,0.00731359,-0.00001532,0.00124717,0.00025903,0.00000261
 ,0.00165799,0.00143535,-0.00000023,-0.00329163,-0.00102508,-0.00000503
 ,0.00211033,-0.00252142,0.00001168,-0.00196071,0.00150619,-0.00000882,
 -0.00202309,-0.00108581,0.00000092,-0.00016047,-0.00001915,-0.00000156
 ,-0.00091814,0.00226783,-0.00004414,0.00135074,-0.00102171,0.00002233,
 -0.00005482,0.00003057,-0.00000014,-0.00005174,-0.00004593,0.00000074,
 0.00005456,0.00544649,0.00001485,0.01588131,-0.00181777,-0.00008173,-0
 .02413631,-0.00073710,0.00027576,0.01585158,-0.00653346,0.00002490,0.0
 1496825,0.00183075,0.00018775,-0.05703262,-0.01697061,-0.00104851,-0.0
 0065769,-0.00024457,-0.00006738,-0.04277228,0.02666666,-0.00062253,-0.
 00002190,0.00014072,-0.00007779,-0.31053407,0.01708750,-0.01194958,0.0
 0214831,0.00141251,-0.00010709,0.00192616,-0.00141797,-0.00022826,0.68
 767268,0.00055875,0.00029478,-0.00001014,0.00018553,-0.00081639,0.0000
 0365,-0.00012406,-0.00002206,0.00000117,-0.00018302,-0.00015411,-0.000
 00349,0.00035509,0.00011081,0.00000133,-0.00023961,0.00027726,-0.00000
 191,0.00020942,-0.00016501,-0.00000025,0.00021967,0.00011803,0.0000021
 6,0.00001718,0.00000228,0.00000060,0.00009637,-0.00024321,0.00000419,-
 0.00014343,0.00011100,-0.00000167,0.00000592,-0.00000343,0.00000008,0.
 00000573,0.00000497,-0.00000014,-0.00025117,-0.00061417,-0.00003594,-0
 .00175900,0.00098404,0.00007340,0.00326963,0.00753379,0.00001082,0.003
 89614,-0.00990472,-0.00099550,-0.00855442,-0.00969013,0.00082978,-0.04
 355320,0.00879868,-0.00132387,-0.00146053,0.00022973,0.00005136,0.0535
 3834,-0.00545946,0.00137373,0.00136870,0.00000937,-0.00004921,0.017237
 89,-0.13142665,0.00109755,-0.00037064,0.00167366,0.00064243,0.00035921
 ,0.00189694,-0.00057068,0.01448562,0.82680086,-0.00112442,-0.00050036,
 -0.00017464,-0.00049184,0.00187901,-0.00005553,0.00033469,0.00006530,0
 .00003717,0.00041437,0.00037173,-0.00000943,-0.00083727,-0.00026443,-0
 .00000517,0.00053139,-0.00063991,0.00003157,-0.00050669,0.00038561,-0.
 00000236,-0.00051621,-0.00027590,0.00000305,-0.00004021,-0.00000369,-0
 .00000242,-0.00023475,0.00058018,-0.00001427,0.00034572,-0.00025917,0.
 00000681,-0.00001295,0.00000707,-0.00000008,-0.00001384,-0.00001070,-0
 .00000026,-0.00003610,0.00152085,0.00043028,0.00429591,-0.00062745,-0.
 00071932,-0.00644548,-0.00032729,-0.00096897,0.00425433,-0.00057266,0.
 00514603,0.00408650,-0.00027157,0.00468286,-0.00520745,-0.00573988,0.0
 0904228,0.00017015,-0.00011234,-0.00012233,-0.00349385,0.00631358,0.00
 868839,0.00023084,0.00003271,-0.00020550,0.03176871,-0.00320770,-0.041
 54210,-0.00021796,-0.00000292,-0.00267120,-0.00020072,0.00009708,-0.00
 249179,-0.14474125,0.01449266,0.09338264,0.00002553,0.00000852,0.00002
 086,0.00004219,-0.00010561,0.00000637,-0.00002932,-0.00000598,-0.00000
 472,-0.00002356,-0.00002434,-0.00000088,0.00005317,0.00001747,-0.00000
 036,-0.00002969,0.00003313,-0.00000047,0.00003366,-0.00002360,-0.00000
 026,0.00002883,0.00001850,-0.00000026,0.00000311,0.00000097,0.00000011
 ,0.00002127,-0.00003900,-0.00000088,-0.00002532,0.00001936,0.00000262,
 0.00000158,-0.00000097,0.00000011,0.00000053,0.00000155,-0.00000047,0.
 00007841,-0.00019190,-0.00005683,-0.00037655,-0.00000423,0.00005816,0.
 00070968,-0.00031222,0.00006441,-0.00058367,0.00016621,-0.00046902,-0.
 00004837,0.00164939,-0.00024518,0.00249905,0.00178980,-0.00056803,0.00
 009285,0.00000393,0.00003655,-0.00505205,-0.00230534,0.00042654,-0.000
 36476,-0.00003947,-0.00000423,-0.01347856,0.03517984,0.00987011,-0.000
 28313,-0.00146791,0.00032397,0.00006236,0.00011653,0.00002924,-0.12050
 843,0.12306792,0.04999771,0.12589724,-0.00030473,-0.00015037,0.0000328
 2,-0.00015792,0.00054942,-0.00000137,0.00010415,0.00001973,-0.00000517
 ,0.00012231,0.00010889,0.00000514,-0.00024817,-0.00008106,-0.00000304,
 0.00015994,-0.00017946,0.00000448,-0.00015139,0.00011484,0.00000209,-0
 .00014760,-0.00008320,-0.00000079,-0.00001209,-0.00000235,-0.00000081,
 -0.00007672,0.00017463,-0.00000086,0.00010710,-0.00008115,-0.00000226,
 -0.00000503,0.00000290,-0.00000031,-0.00000355,-0.00000467,0.00000049,
 -0.00006258,0.00050809,-0.00002322,0.00138482,-0.00026141,-0.00014514,
 -0.00194186,0.00006217,0.00001539,0.00135854,-0.00080547,0.00071380,0.
 00097138,0.00018351,-0.00006832,-0.00368889,0.00081816,0.00056218,-0.0
 0003028,-0.00002146,-0.00004023,-0.00173127,0.00241702,-0.00068755,0.0
 0002238,0.00003165,0.00004622,0.00471174,0.00142751,0.00039615,0.00007
 055,-0.00056350,-0.00054547,-0.00013331,0.00026027,-0.00003601,0.12613
 307,-0.37355547,-0.09357706,-0.13942140,0.38621012,0.00036321,0.000158
 69,-0.00005650,0.00015490,-0.00060049,-0.00000608,-0.00010595,-0.00002
 108,0.00001112,-0.00013208,-0.00011870,-0.00000019,0.00026670,0.000083
 99,0.00000116,-0.00016906,0.00020474,0.00000589,0.00016131,-0.00012315
 ,0.00000231,0.00016486,0.00008796,-0.00000240,0.00001282,0.00000113,0.
 00000042,0.00007413,-0.00018444,0.00000557,-0.00010981,0.00008228,-0.0
 0000502,0.00000409,-0.00000226,0.00000009,0.00000441,0.00000332,0.0000
 0062,-0.00000962,-0.00049288,0.00005434,-0.00138797,0.00021967,-0.0000
 3643,0.00209929,0.00062419,0.00013889,-0.00077381,0.00017229,-0.000725
 57,-0.00192370,-0.00002900,0.00153933,0.00183875,0.00141183,-0.0008165
 3,0.00000400,0.00002568,0.00004873,0.00085364,-0.00194517,0.00289235,-
 0.00009615,-0.00000334,-0.00032068,-0.01219684,0.00635686,-0.00441967,
 0.00029748,0.00009607,0.00006650,0.00001755,-0.00008157,-0.00058873,0.
 06840290,-0.11930554,-0.03650842,-0.05129771,0.10243359,0.03937564,0.0
 0009497,0.00007123,0.00001739,0.00007765,-0.00022848,0.00000725,-0.000
 04964,-0.00000817,-0.00000318,-0.00005132,-0.00004757,-0.00000309,0.00
 010773,0.00003540,-0.00000057,-0.00006752,0.00007313,-0.00000180,0.000
 06659,-0.00004976,-0.00000110,0.00006185,0.00003645,0.00000137,0.00000
 570,0.00000143,0.00000026,0.00003775,-0.00007705,-0.00000092,-0.000048
 13,0.00003735,0.00000310,0.00000269,-0.00000162,0.00000019,0.00000144,
 0.00000261,-0.00000054,0.00005029,-0.00027987,-0.00002211,-0.00063319,
 0.00033312,0.00003975,0.00116743,0.00035207,0.00004874,-0.00053059,-0.
 00147397,-0.00025928,-0.00083170,-0.00015499,-0.00051461,-0.00397575,0
 .00360407,0.00056406,-0.00037658,0.00010545,-0.00001468,0.00300553,-0.
 00221034,-0.00090376,0.00006015,-0.00000638,0.00005142,-0.02043939,-0.
 03078187,0.00946771,0.00009469,-0.00005443,0.00004487,0.00013373,0.001
 42755,0.00037531,-0.17714891,-0.16201734,0.06695996,0.01131694,0.01275
 259,-0.00628372,0.18794668,0.00028701,0.00013289,-0.00002673,0.0001423
 8,-0.00050937,-0.00000361,-0.00009526,-0.00001872,0.00000699,-0.000113
 37,-0.00010010,-0.00000394,0.00022890,0.00007393,0.00000280,-0.0001478
 8,0.00016725,-0.00000368,0.00013865,-0.00010435,-0.00000174,0.00013632
 ,0.00007649,0.00000021,0.00001125,0.00000208,0.00000035,0.00006993,-0.
 00016052,0.00000086,-0.00009814,0.00007388,0.00000169,0.00000461,-0.00
 000256,0.00000023,0.00000318,0.00000415,-0.00000048,0.00004095,-0.0004
 5153,0.00005510,-0.00126400,0.00014451,0.00008434,0.00175612,0.0002302
 5,-0.00003550,-0.00087261,0.00062950,0.00012980,-0.00133987,-0.0005315
 8,-0.00058589,0.00304788,0.00139967,0.00059776,0.00007488,0.00002437,-
 0.00003331,0.00331190,0.00058906,-0.00037859,0.00000464,-0.00001962,0.
 00003567,-0.00038420,0.00846262,-0.00233595,0.00015121,0.00021739,0.00
 003400,-0.00008038,-0.00052260,0.00025454,-0.16497398,-0.31734920,0.08
 211696,-0.01822837,-0.01666434,0.01047517,0.17839221,0.32380135,0.0003
 5897,0.00016391,0.00000683,0.00016150,-0.00060506,0.00000029,-0.000107
 90,-0.00002046,-0.00000404,-0.00013357,-0.00012004,0.00000191,0.000269
 93,0.00008481,-0.00000294,-0.00017122,0.00020657,0.00000165,0.00016349
 ,-0.00012403,0.00000261,0.00016704,0.00008892,0.00000190,0.00001300,0.
 00000108,0.00000024,0.00007549,-0.00018693,0.00000420,-0.00011094,0.00
 008354,-0.00000410,0.00000407,-0.00000222,0.00000028,0.00000438,0.0000
 0336,0.00000048,0.00003456,-0.00048227,0.00002512,-0.00138826,0.000184
 96,-0.00012717,0.00200895,-0.00038787,0.00000720,-0.00196807,0.0003682
 1,0.00172997,-0.00079810,-0.00003765,-0.00059375,0.00131737,0.00181534
 ,0.00284589,-0.00008357,0.00003692,-0.00026977,0.00132784,-0.00171308,
 -0.00083405,-0.00001864,-0.00001151,0.00006972,-0.01332252,-0.00383362
 ,-0.00480294,0.00001696,0.00006607,-0.00062063,0.00014968,-0.00030255,
 0.00025042,0.09002054,0.10371386,-0.03596961,-0.00818769,-0.00907956,-
 0.00064789,-0.06956779,-0.09038186,0.03893382,0.03090084,-0.00145379,0
 .00005138,-0.14580150,0.07595339,-0.00023056,-0.03259425,0.05528100,-0
 .00015857,-0.01072614,-0.01163220,0.00000346,0.00727265,0.00730405,0.0
 0000455,-0.00933123,0.00169927,-0.00004028,0.01468025,-0.00476334,0.00
 004190,0.00357445,0.00505954,0.00000325,0.00021266,-0.00009231,0.00000
 573,0.00050752,-0.00573605,0.00001733,-0.00715886,0.00424571,-0.000031
 42,-0.00060099,0.00003049,-0.00000181,0.00017175,0.00001513,-0.0000010
 2,-0.01635119,-0.00060267,-0.00003252,-0.06316687,-0.03552984,0.000108
 52,0.00508490,-0.01461443,-0.00000631,-0.00049004,0.00090644,0.0000055
 4,-0.00539627,0.00064507,0.00001036,0.00073318,0.00104968,-0.00001238,
 0.00019691,-0.00015355,0.00000145,0.00071562,-0.00246853,-0.00002788,0
 .00023985,0.00002362,0.00000284,-0.00121880,0.00030282,-0.00012832,-0.
 00012629,0.00000343,0.00000134,-0.00042975,0.00005438,0.00000264,0.001
 47423,-0.00013871,0.00041442,-0.00001886,0.00012675,-0.00013234,-0.000
 02842,-0.00012842,-0.00013457,0.51450417,-0.00106002,-0.06675849,0.000
 13113,0.05697954,-0.27945218,0.00053400,0.02785282,-0.00699824,0.00004
 833,-0.00119944,0.00561295,-0.00000798,-0.00235852,-0.00786403,0.00000
 852,-0.00264333,-0.00155541,0.00001163,-0.00276336,-0.01244983,0.00004
 143,-0.00202810,-0.00015081,-0.00000364,0.00029389,0.00041701,-0.00000
 469,-0.00059219,0.00247729,-0.00000841,0.00246053,0.00157658,-0.000008
 71,0.00000947,0.00000024,-0.00000098,0.00019916,0.00006802,0.00000328,
 0.02547337,0.00229428,0.00003329,-0.01840544,0.01271991,-0.00005499,-0
 .00618375,-0.00266272,0.00002443,0.00179198,-0.00316643,-0.00001151,0.
 00263193,0.00261221,-0.00000831,-0.00282763,-0.00174567,0.00005879,0.0
 0019259,0.00011999,-0.00000104,-0.00316709,0.00261905,0.00007267,0.000
 09192,0.00001254,-0.00000160,0.00509496,-0.00111099,0.00039523,-0.0002
 3255,0.00018396,-0.00000035,-0.00032359,-0.00010160,0.00000228,-0.0054
 4290,0.00061323,-0.00140229,0.00009068,-0.00041303,0.00044698,0.000188
 17,0.00038000,0.00045152,-0.02910518,0.41553717,0.00001537,0.00011221,
 0.01426493,-0.00013289,0.00052920,-0.04787418,-0.00014849,0.00009098,0
 .00507205,-0.00001682,-0.00003044,0.00422050,0.00003211,0.00002683,-0.
 00144456,-0.00002972,0.00003429,0.00690541,0.00004098,0.00003050,-0.00
 176259,0.00000667,0.00000393,0.00002037,0.00000085,-0.00000113,-0.0003
 4645,0.00000544,-0.00001535,-0.00043185,-0.00001275,-0.00000228,-0.000
 03779,-0.00000020,0.00000043,0.00007558,-0.00000105,0.00000088,-0.0000
 4000,-0.00006485,-0.00001121,-0.00738184,0.00001510,-0.00004238,0.0081
 6209,0.00002852,0.00001135,0.00112708,-0.00000555,0.00000798,0.0002261
 7,-0.00001374,-0.00001039,-0.00023405,0.00000815,0.00000479,-0.0001279
 4,0.00000111,-0.00000070,0.00011334,0.00001232,-0.00000902,-0.00004721
 ,0.00000016,-0.00000016,0.00002744,-0.00000895,0.00000737,-0.00002623,
 0.00000033,0.00000039,-0.00000426,0.00000055,-0.00000079,0.00002134,0.
 00001329,-0.00000414,0.00002305,-0.00000259,0.00000482,-0.00000739,-0.
 00000282,-0.00000227,0.00000112,0.00024691,-0.00080671,0.03736573,0.00
 336315,-0.00323494,0.00001579,-0.00606481,0.01075429,-0.00002236,0.016
 60033,-0.01487274,0.00006555,-0.01164682,-0.00028068,-0.00005253,0.003
 38740,-0.00036338,0.00001298,-0.00236549,0.00176811,-0.00001055,-0.133
 11142,0.08247978,-0.00046535,0.00643065,0.00817791,0.00002938,-0.00013
 976,-0.00019889,0.00000030,-0.00457491,-0.01485050,0.00005744,-0.03744
 170,0.06727202,-0.00033518,0.00052943,0.00012376,-0.00000286,0.0032303
 0,-0.00007708,0.00001606,-0.00129072,0.00021427,-0.00000390,-0.0031106
 3,-0.00164122,0.00000368,0.00055215,-0.00090639,0.00000059,-0.00013122
 ,0.00020363,0.00000080,-0.00049553,-0.00005996,0.00000145,0.00020114,0
 .00015894,-0.00000386,0.00001919,-0.00002834,0.00000031,0.00018437,-0.
 00029936,-0.00000511,0.00001424,-0.00000077,0.00000025,-0.00032365,0.0
 0005604,-0.00002860,0.00000018,-0.00000443,0.00000012,-0.00002040,0.00
 000521,0.00000003,0.00036331,-0.00003792,0.00009470,-0.00000634,0.0000
 3037,-0.00003001,-0.00001185,-0.00002805,-0.00003014,-0.02758722,-0.01
 912956,0.00003212,0.64185086,-0.00636762,-0.00317296,-0.00001090,0.011
 64286,0.00234131,0.00000869,0.01078272,-0.04697733,0.00019947,-0.00265
 916,-0.00031760,0.00001303,0.00050613,-0.00141046,0.00000001,0.0003905
 3,-0.00009493,0.00000260,0.03824706,-0.28093807,0.00087555,0.00046842,
 -0.00825172,0.00000183,-0.00029500,-0.00028176,-0.00000055,-0.00449464
 ,0.00931676,-0.00002288,0.03410072,-0.01816353,0.00016235,-0.00038665,
 0.00008273,0.00000390,-0.00100807,0.00070346,0.00000120,0.00374651,-0.
 00024409,0.00000830,0.00058059,0.00171537,-0.00000569,-0.00145293,-0.0
 0009323,0.00000167,0.00056315,-0.00083051,-0.00000220,0.00084919,0.000
 64846,-0.00000358,-0.00088662,-0.00056006,0.00001585,0.00006670,-0.000
 00111,-0.00000053,-0.00090380,0.00084154,0.00002136,0.00001612,0.00003
 088,-0.00000026,0.00154172,-0.00028589,0.00012193,-0.00006918,0.000054
 43,0.00000020,-0.00008238,-0.00003378,0.00000095,-0.00166499,0.0001808
 8,-0.00042787,0.00002718,-0.00012725,0.00013680,0.00005601,0.00011557,
 0.00013778,-0.00914748,0.00324379,-0.00000975,-0.06319372,0.39598678,0
 .00002999,0.00000605,-0.00072464,-0.00003629,0.00000942,-0.00200937,-0
 .00001504,0.00012759,0.00612006,-0.00003838,0.00001617,0.00612685,0.00
 000579,0.00000828,-0.00018216,-0.00000779,0.00000347,-0.00008185,-0.00
 029499,0.00093474,-0.04210853,0.00002730,0.00005656,-0.00166921,0.0000
 0065,0.00000030,0.00019653,-0.00002424,-0.00006009,0.00576220,-0.00025
 188,0.00025309,0.00927255,0.00000120,-0.00000325,-0.00044719,0.0000384
 4,-0.00001259,-0.00413638,-0.00001716,0.00000111,0.00011893,-0.0000058
 4,-0.00000840,-0.00006842,0.00000637,-0.00000065,0.00001067,-0.0000025
 5,0.00000313,-0.00003726,-0.00000443,-0.00000267,-0.00000761,0.0000038
 0,0.00000219,0.00001564,-0.00000057,-0.00000010,-0.00001193,0.00000434
 ,-0.00000405,0.00000446,-0.00000009,-0.00000021,-0.00000049,-0.0000065
 9,0.00000169,-0.00000181,0.00000005,0.,-0.00000115,0.00000020,-0.00000
 004,0.00000040,0.00000756,-0.00000061,0.00000346,-0.00000066,0.0000004
 5,-0.00000119,-0.00000082,-0.00000070,-0.00000229,0.00001016,-0.000020
 97,0.00289664,0.00112236,-0.00140296,0.02914389,-0.00087151,0.00335147
 ,-0.00000680,0.01237816,-0.01232751,0.00003499,-0.00040541,-0.00288967
 ,0.00001017,-0.00008882,-0.00109533,0.00000136,-0.00016883,0.00040243,
 -0.00000216,0.00070500,-0.00018597,0.00000277,-0.02218557,0.01688090,-
 0.00008801,-0.00063332,-0.00205204,0.00000134,-0.00010671,-0.00011661,
 -0.00000013,-0.00061215,0.00242769,-0.00001573,0.00586725,-0.00252546,
 0.00001839,-0.00013395,0.00000024,0.00000097,-0.00007477,0.00006959,0.
 00000081,-0.00065292,-0.00019817,-0.00000373,0.00243792,0.00070272,0.0
 0000203,0.00027316,0.00093477,-0.00000338,-0.00017544,0.00023682,0.000
 00075,0.00003410,-0.00028729,0.00000221,0.00027171,0.00014046,-0.00000
 529,-0.00006378,0.00003796,0.00000024,0.00029809,-0.00014557,-0.000007
 87,-0.00002239,-0.00001534,-0.00000020,-0.00048838,0.00009404,-0.00003
 393,0.00003470,-0.00002179,-0.00000027,0.00006195,0.00001050,-0.000000
 45,0.00051081,-0.00005607,0.00012842,-0.00000924,0.00003729,-0.0000412
 5,-0.00001854,-0.00003354,-0.00004149,-0.00216089,0.00910957,-0.000034
 01,-0.45609777,-0.01065020,-0.00057254,0.47107729,0.00099213,0.0015929
 4,0.00000013,0.00113346,-0.01382208,0.00003625,-0.00178323,0.00046750,
 -0.00000852,0.00103682,-0.00076011,0.00000323,-0.00009850,0.00078797,-
 0.00000202,0.00010523,0.00006650,0.00000222,0.04856421,-0.00041171,0.0
 0005924,-0.00062955,-0.00037715,-0.00000424,0.00001640,0.00002893,0.00
 000038,0.00136430,0.00131278,0.00000194,0.00204885,-0.00755900,0.00003
 710,-0.00010698,-0.00000839,-0.00000019,-0.00004846,0.00013975,-0.0000
 0199,-0.00065788,-0.00007081,-0.00000291,0.00201300,0.00073617,0.00000
 252,0.00043042,0.00075603,-0.00000290,-0.00021562,0.00031038,0.0000012
 3,-0.00007847,-0.00031804,-0.00000030,0.00034460,0.00018251,-0.0000067
 9,-0.00005581,0.00002227,-0.00000005,0.00036176,-0.00022945,-0.0000059
 6,-0.00002201,-0.00001946,-0.00000001,-0.00059247,0.00011183,-0.000044
 87,0.00003650,-0.00002153,-0.00000009,0.00005824,0.00000979,-0.0000004
 2,0.00062781,-0.00006980,0.00015854,-0.00001148,0.00004805,-0.00005043
 ,-0.00002338,-0.00004312,-0.00005128,0.00675653,0.00080592,0.00000022,
 -0.05128377,-0.05253521,0.00008001,-0.00372527,0.06768828,-0.00000870,
 -0.00000368,0.00047912,0.00000747,0.00002666,0.00002984,0.00000610,-0.
 00000395,0.00052787,0.00000208,-0.00000044,-0.00050344,-0.00000087,-0.
 00000452,-0.00003398,0.00000235,-0.00000157,0.00004865,-0.00019850,0.0
 0002021,-0.00423759,-0.00000662,-0.00000631,0.00008883,-0.00000017,-0.
 00000032,-0.00000873,-0.00001709,0.00001398,0.00192179,-0.00001392,0.0
 0003037,0.00258067,-0.00000016,-0.00000051,-0.00011516,0.00000797,0.00
 000061,-0.00077972,0.00000600,0.00000127,-0.00023203,-0.00000556,-0.00
 000120,0.00047152,-0.00000208,-0.00000266,-0.00019325,0.00000110,-0.00
 000137,0.00006356,0.00000143,0.00000207,0.00000581,-0.00000242,-0.0000
 0038,-0.00003151,0.00000053,0.00000020,0.00001226,-0.00000208,0.000001
 41,-0.00000212,0.00000014,0.00000010,0.00000234,0.00000188,-0.00000148
 ,0.00000854,0.00000041,-0.00000085,0.00000219,0.00000003,0.00000063,0.
 00000599,-0.00000247,-0.00000034,-0.00000321,0.00000078,-0.00000055,0.
 00000120,0.00000076,0.00000133,0.00000233,-0.00002739,0.00000393,-0.00
 102278,-0.00041631,0.00012866,-0.00932096,0.00064333,-0.00019606,0.012
 36355,0.00595578,-0.00003803,0.00002382,-0.00327709,0.00076100,0.00001
 656,0.00243502,-0.00344154,0.00004227,-0.00457857,0.00176785,-0.000075
 98,0.00523883,0.00074663,0.00003897,-0.00201776,0.00335206,-0.00003319
 ,0.00044971,0.00409446,-0.00017077,-0.00853814,-0.00985484,0.00017918,
 -0.00015345,-0.00010809,-0.00000450,-0.15810167,0.00406220,0.00030709,
 -0.00858969,0.01544873,0.00009956,0.00007614,0.00184715,0.00000609,-0.
 00058494,-0.00168055,-0.00000387,-0.00365093,-0.00053972,-0.00001508,-
 0.00151120,-0.00137056,0.00001326,0.00248403,0.00014392,-0.00000605,-0
 .00092450,0.00128764,0.00000661,-0.00128550,-0.00101602,0.00000588,0.0
 0136566,0.00083893,-0.00002882,-0.00010721,0.00001120,0.00000110,0.001
 35542,-0.00123406,-0.00003393,-0.00002160,-0.00004906,0.00000055,-0.00
 230860,0.00040298,-0.00017429,0.00009820,-0.00007591,-0.00000062,0.000
 12157,0.00004635,-0.00000124,0.00245889,-0.00026315,0.00063078,-0.0000
 4519,0.00018982,-0.00020081,-0.00008746,-0.00017359,-0.00020421,0.0016
 1342,-0.00072029,0.00000574,0.00511894,-0.00615198,0.00004932,-0.00119
 761,-0.00008420,0.00000736,0.50361866,-0.00007625,-0.00108676,0.000010
 34,0.00137541,-0.00011257,-0.00000976,-0.00160924,-0.00262698,-0.00000
 512,-0.00422257,-0.00570537,0.00010258,-0.00001148,0.00124762,-0.00001
 297,-0.00113470,0.00032477,-0.00001266,0.00441978,-0.00429214,0.000017
 61,-0.01591109,0.01073321,0.00009723,-0.00003916,-0.00004149,0.0000042
 1,0.00768687,-0.07055549,0.00024151,0.02186545,0.00453980,-0.00049926,
 -0.00290967,-0.00345606,-0.00004569,0.00132098,-0.00251311,-0.00002472
 ,-0.00004502,0.00006773,-0.00000100,0.00007970,-0.00009129,0.00000026,
 -0.00009821,-0.00001495,-0.00000247,0.00002841,-0.00004404,0.00000075,
 0.00004479,0.00004229,0.00000203,-0.00004878,-0.00002109,0.00000108,0.
 00000600,0.00000288,0.00000015,-0.00005152,0.00003687,-0.00000115,0.00
 000074,0.00000157,0.00000003,0.00005876,-0.00001690,0.00000541,0.00000
 193,-0.00000704,-0.00000024,0.00000147,0.00000693,-0.00000009,-0.00006
 521,0.00000655,-0.00001273,0.00000426,-0.00000860,0.00000338,0.0000060
 7,0.00000828,0.00000393,-0.00021178,0.00021702,-0.00000272,0.00087041,
 0.00013471,0.00002616,0.00009511,-0.00028345,0.00000567,0.01287510,0.8
 0931568,0.00000597,0.00001924,0.00016504,-0.00002689,-0.00002472,-0.00
 062362,0.00001979,0.00003758,-0.00078679,-0.00008703,0.00006997,0.0076
 5927,-0.00000396,0.00000928,-0.00010486,0.00000967,-0.00003811,-0.0001
 9797,-0.00009703,-0.00007870,0.00424090,-0.00019571,-0.00012156,-0.000
 18728,0.00000391,0.00000285,0.00017558,0.00032135,0.00015899,-0.049491
 38,-0.00036900,0.00006635,-0.00267977,0.00009968,0.00009152,-0.0033499
 7,-0.00004408,-0.00012264,-0.00130614,-0.00000487,0.00000514,-0.000013
 69,0.00000532,-0.00000350,0.00005234,-0.00000524,-0.00000145,-0.000016
 18,0.00000137,-0.00000296,-0.00000647,0.00000267,0.00000360,-0.0000025
 3,-0.00000393,-0.00000041,-0.00000122,0.00000032,-0.00000001,0.0000024
 7,-0.00000403,0.00000162,-0.00000401,0.00000004,-0.00000002,0.00000422
 ,0.00000363,-0.00000110,0.00000011,0.00000067,-0.00000127,0.00000153,0
 .00000040,0.00000116,0.00000219,-0.00000421,0.00000050,-0.00000449,0.0
 0000085,-0.00000101,0.00000224,0.00000103,0.00000090,0.00000224,-0.000
 02278,0.00000634,0.00007466,-0.00006869,0.00007276,0.00012813,0.000018
 43,0.00000598,-0.00007038,0.00159827,-0.00045466,0.76518260,-0.0017977
 8,-0.00038805,-0.00003551,0.00157505,-0.00015289,0.00014781,-0.0015202
 6,0.00010304,-0.00013906,0.00060365,-0.00153048,-0.00252674,-0.0013941
 0,0.00020600,-0.00020976,0.00019834,-0.00089791,0.00017627,0.00223744,
 -0.00144605,-0.00061263,-0.00541393,0.00418063,0.00128657,0.00005194,0
 .00002568,-0.00004439,-0.00400195,-0.01468121,0.02621460,-0.00279584,-
 0.00179393,0.00020402,0.00000264,-0.00025091,0.00105066,0.00000300,-0.
 00013868,0.00019278,0.00108650,0.00015611,0.00000795,0.00043907,0.0003
 9296,-0.00001606,-0.00074154,-0.00005129,-0.00000102,0.00027612,-0.000
 38827,0.00000010,0.00038649,0.00030889,0.00000586,-0.00041334,-0.00025
 037,0.00000736,0.00003359,-0.00000240,-0.00000030,-0.00041280,0.000372
 19,0.00000791,0.00000661,0.00001529,0.00000066,0.00069213,-0.00012464,
 0.00005385,-0.00002825,0.00001951,0.00000013,-0.00003454,-0.00001078,0
 .00000009,-0.00073870,0.00007939,-0.00018817,0.00001469,-0.00005852,0.
 00005962,0.00002771,0.00005326,0.00006077,-0.00063571,0.00030874,-0.00
 001350,-0.00163910,0.00194272,-0.00000511,0.00041343,0.00000944,0.0000
 5471,-0.11528741,-0.04712105,0.09943396,0.09312345,-0.00053396,0.00013
 725,-0.00001183,0.00009955,0.00003680,0.00011794,-0.00000868,0.0006410
 7,0.00014561,0.00108941,0.00009955,-0.00053664,-0.00061088,-0.00014094
 ,0.00001741,0.00031784,-0.00034442,-0.00004849,-0.00097410,0.00056056,
 -0.00070179,-0.00177721,-0.00013831,-0.00042656,0.00002701,0.00002459,
 -0.00001193,0.00130551,0.00599109,0.00723107,-0.00143094,-0.00167478,-
 0.00068832,0.00034271,0.00039937,0.00063405,-0.00022902,0.00101998,0.0
 0071886,0.00033904,0.00004182,0.00000306,0.00013008,0.00013966,-0.0000
 1581,-0.00020904,-0.00000463,0.00000862,0.00007979,-0.00010745,-0.0000
 0411,0.00010687,0.00008086,-0.00000200,-0.00011244,-0.00007445,0.00000
 337,0.00000737,-0.00000272,0.00000029,-0.00010973,0.00010503,0.0000039
 8,0.00000120,0.00000404,0.00000022,0.00020287,-0.00003073,0.00001453,-
 0.00001076,0.00001154,0.00000035,-0.00001354,-0.00000872,0.00000019,-0
 .00021444,0.00002303,-0.00005781,0.00000238,-0.00001442,0.00001873,0.0
 0000560,0.00001324,0.00001891,-0.00006761,0.00002776,-0.00002247,-0.00
 034445,0.00020707,-0.00005673,0.00002791,0.00001925,0.00002680,-0.0449
 1162,-0.13886029,0.13057502,0.05761809,0.14731119,0.00104935,0.0000743
 4,0.00001913,-0.00076209,0.00009443,-0.00010429,0.00064692,-0.00041104
 ,0.00007562,-0.00062511,0.00125342,0.00058405,0.00110155,-0.00011112,0
 .00012148,-0.00022606,0.00073932,-0.00007571,-0.00071475,0.00053708,0.
 00022188,0.00614170,-0.00222194,0.00012194,-0.00004552,-0.00002350,-0.
 00000027,-0.00207240,0.00960393,-0.00683612,0.00207599,0.00118634,0.00
 131093,-0.00019255,-0.00031370,-0.00047830,-0.00013365,-0.00021814,-0.
 00035851,-0.00065590,-0.00007884,-0.00000319,-0.00023915,-0.00025534,0
 .00001088,0.00042133,0.00002844,-0.00000337,-0.00015734,0.00022215,0.0
 0000377,-0.00021923,-0.00017611,-0.00000069,0.00023746,0.00014698,-0.0
 0000413,-0.00001858,0.00000299,-0.00000199,0.00023645,-0.00021507,-0.0
 0000348,-0.00000345,-0.00000873,-0.00000166,-0.00040647,0.00006990,-0.
 00003136,0.00001780,-0.00001449,-0.00000084,0.00002272,0.00000928,-0.0
 0000104,0.00043381,-0.00004664,0.00011351,-0.00000774,0.00003290,-0.00
 003652,-0.00001500,-0.00003015,-0.00003704,0.00040591,-0.00019645,0.00
 001477,0.00112315,-0.00120259,0.00001609,-0.00024921,-0.00003630,-0.00
 003182,0.09338815,0.12969794,-0.33807643,-0.11359489,-0.16110847,0.395
 99481,-0.00148986,0.00019402,-0.00000727,0.00079844,-0.00017655,-0.000
 00821,-0.00068103,0.00131001,-0.00000798,0.00220933,0.00118547,0.00008
 807,-0.00133176,-0.00036421,-0.00001607,0.00064867,-0.00116290,0.00000
 730,0.00060620,0.00020264,0.00010409,-0.00499057,-0.00038660,-0.000259
 35,0.00006802,0.00003523,0.00000377,-0.00103948,0.03122708,-0.00133148
 ,-0.00799269,-0.00448385,-0.00018168,-0.00063106,0.00231146,0.00016666
 ,0.00034980,0.00031348,-0.00002109,0.00096341,0.00006881,0.00000156,0.
 00029985,0.00040107,-0.00000176,-0.00057776,-0.00005169,0.00000239,0.0
 0021937,-0.00031305,-0.00000309,0.00030853,0.00024826,-0.00000303,-0.0
 0033512,-0.00020315,0.00000839,0.00002788,-0.00000309,-0.00000032,-0.0
 0033512,0.00030258,0.00000973,0.00000616,0.00001374,-0.00000029,0.0005
 6695,-0.00010197,0.00004094,-0.00002406,0.00001728,0.00000015,-0.00002
 975,-0.00000987,0.00000025,-0.00060588,0.00006502,-0.00015400,0.000011
 54,-0.00004732,0.00004914,0.00002213,0.00004314,0.00004992,-0.00066497
 ,0.00024051,0.00000060,-0.00237216,0.00226760,-0.00000726,0.00048936,0
 .00018560,-0.00000066,-0.10110944,0.08111580,-0.00393008,0.01698193,-0
 .00969768,0.00467197,0.08275664,0.00112928,0.00025734,-0.00000183,-0.0
 0092946,0.00023195,-0.00000483,0.00061367,-0.00009724,0.00002596,-0.00
 049577,0.00228077,-0.00007463,0.00091001,-0.00008633,0.00001240,-0.000
 11435,0.00049152,-0.00000907,-0.00160979,-0.00055127,-0.00002747,-0.00
 056478,-0.00280267,-0.00016364,0.00001456,0.00001723,0.00000135,-0.004
 06289,-0.01630442,0.00117183,0.00745251,0.00268359,0.00004623,0.001495
 53,0.00216246,0.00018485,-0.00034726,0.00056783,0.00005038,-0.00066033
 ,-0.00007491,-0.00000149,-0.00025723,-0.00023525,0.00000174,0.00043872
 ,0.00002906,0.00000105,-0.00016264,0.00022753,0.00000037,-0.00022705,-
 0.00018263,-0.00000013,0.00024369,0.00015149,-0.00000500,-0.00001899,0
 .00000294,0.00000006,0.00024311,-0.00021948,-0.00000528,-0.00000408,-0
 .00000920,0.00000041,-0.00041599,0.00007114,-0.00003198,0.00001753,-0.
 00001409,0.,0.00002308,0.00000904,-0.00000038,0.00044333,-0.00004703,0
 .00011366,-0.00000803,0.00003352,-0.00003600,-0.00001541,-0.00003134,-
 0.00003687,0.00033226,-0.00010297,-0.00000376,0.00167832,-0.00109433,-
 0.00000772,-0.00031254,-0.00016240,0.00000293,0.08039648,-0.42750444,0
 .01842193,0.00460505,-0.02801846,0.01214518,-0.09400120,0.50155216,-0.
 00004169,-0.00002267,-0.00001187,0.00005768,-0.00000218,-0.00000422,-0
 .00005414,-0.00003318,-0.00008760,-0.00002711,-0.00003460,-0.00005975,
 -0.00001800,0.00001461,0.00008746,-0.00001508,-0.00001276,-0.00006878,
 0.00014459,0.00008124,-0.00003071,-0.00003388,0.00011258,0.00030406,0.
 00000065,-0.00000033,-0.00000848,0.00036947,0.00096669,0.00782481,-0.0
 0044713,-0.00011518,0.00103935,0.00016188,0.00004931,-0.00016888,0.000
 00214,0.00000106,0.00011696,0.00002430,0.00000341,-0.00000351,0.000008
 76,0.00000790,0.00000197,-0.00001659,-0.00000214,0.00000181,0.00000580
 ,-0.00000916,0.00000357,0.00000926,0.00000783,-0.00000087,-0.00001026,
 -0.00000497,-0.00000172,0.00000111,0.00000040,-0.00000123,-0.00001062,
 0.00000859,0.00000123,0.00000019,0.00000035,0.00000103,0.00001381,-0.0
 0000360,0.00000224,-0.00000009,-0.00000076,-0.00000035,0.,0.00000086,-
 0.00000070,-0.00001541,0.00000168,-0.00000234,0.00000065,-0.00000167,0
 .00000069,0.00000093,0.00000149,0.00000029,-0.00002341,0.00000811,-0.0
 0001863,-0.00009188,0.00005690,-0.00015263,0.00001642,0.00000944,-0.00
 002165,-0.00380939,0.01792435,-0.07464243,-0.00234669,0.04147481,-0.00
 432613,0.00468811,-0.02244214,0.06931537,-0.00175156,-0.00038747,0.000
 01846,0.00157979,-0.00019392,-0.00013472,-0.00150759,0.00006614,0.0001
 3966,0.00042506,-0.00171920,0.00244630,-0.00140317,0.00025562,0.000206
 51,0.00015845,-0.00092904,-0.00015274,0.00237876,-0.00164755,0.0005603
 7,-0.00591264,0.00446244,-0.00140732,0.00005384,0.00002487,0.00004635,
 -0.00412671,-0.01789038,-0.02470699,-0.00263107,-0.00144474,-0.0003325
 0,0.00005963,-0.00026176,-0.00098324,-0.00014082,-0.00021235,-0.000180
 41,0.00105817,0.00014405,0.00000303,0.00042272,0.00038991,0.00000597,-
 0.00072265,-0.00004693,0.00000507,0.00027067,-0.00037586,-0.00000350,0
 .00037188,0.00029522,-0.00000821,-0.00039898,-0.00024903,0.00000908,0.
 00003152,-0.00000494,-0.00000042,-0.00039587,0.00036334,0.00001125,0.0
 0000613,0.00001541,-0.00000087,0.00068542,-0.00011722,0.00005143,-0.00
 003100,0.00002601,0.00000033,-0.00003857,-0.00001700,0.00000056,-0.000
 72936,0.00007792,-0.00018869,0.00001236,-0.00005480,0.00006021,0.00002
 463,0.00005024,0.00006127,-0.00066626,0.00033382,0.00000636,-0.0016857
 3,0.00204183,-0.00002507,0.00043768,0.00000793,-0.00005556,-0.11885688
 ,-0.05831832,-0.09666419,0.01863028,-0.00041758,0.00840485,0.01672638,
 0.00423720,0.00144965,0.09757553,-0.00062564,0.00008350,0.00000969,0.0
 0021945,0.00006303,-0.00011202,-0.00010484,0.00056689,-0.00016090,0.00
 100227,-0.00004609,0.00053902,-0.00067871,-0.00009845,-0.00000404,0.00
 030175,-0.00038373,0.00005287,-0.00072965,0.00068561,0.00071820,-0.002
 46098,0.00023483,0.00052164,0.00003169,0.00002851,0.00000896,0.0014271
 1,0.00359364,-0.00878850,-0.00132394,-0.00183086,0.00122453,0.00041613
 ,0.00045906,-0.00067932,-0.00009312,0.00120838,-0.00078792,0.00039513,
 0.00005253,0.00000247,0.00015312,0.00015897,0.00001325,-0.00024831,-0.
 00000705,-0.00000753,0.00009434,-0.00012808,0.00000408,0.00012654,0.00
 009702,0.00000169,-0.00013402,-0.00008788,0.00000070,0.00000898,-0.000
 00298,-0.00000055,-0.00013122,0.00012482,0.00000239,0.00000137,0.00000
 464,-0.00000067,0.00024026,-0.00003696,0.00001965,-0.00001256,0.000013
 13,-0.00000013,-0.00001565,-0.00000974,0.00000029,-0.00025386,0.000027
 18,-0.00006704,0.00000288,-0.00001735,0.00002149,0.00000676,0.00001588
 ,0.00002174,-0.00011054,0.00004836,0.00002811,-0.00044278,0.00030008,0
 .00004946,0.00004100,0.00002310,-0.00003331,-0.05665563,-0.16947208,-0
 .14871128,-0.00111067,0.01255501,0.01083838,-0.01078811,-0.03326211,-0
 .03804304,0.07148403,0.18506430,-0.00097216,-0.00004558,0.00001534,0.0
 0069427,-0.00009369,-0.00007543,-0.00057631,0.00043234,0.00007920,0.00
 065785,-0.00127282,0.00035075,-0.00106912,0.00009528,0.00010951,0.0002
 2960,-0.00070809,-0.00005508,0.00064035,-0.00055387,0.00007734,-0.0061
 3573,0.00215678,0.00005088,0.00004218,0.00002039,-0.00000410,0.0019870
 6,-0.01067800,-0.00481538,-0.00150727,-0.00109244,0.00135449,0.0001669
 9,0.00029341,-0.00033177,0.00012813,0.00020404,-0.00035091,0.00061082,
 0.00006372,0.00000163,0.00021119,0.00024439,0.00000274,-0.00038092,-0.
 00002514,-0.00000122,0.00014311,-0.00020133,0.00000188,0.00019802,0.00
 015816,-0.00000140,-0.00021455,-0.00013536,0.00000527,0.00001670,-0.00
 000313,-0.00000218,-0.00021315,0.00019643,0.00000729,0.00000313,0.0000
 0821,-0.00000200,0.00037270,-0.00006288,0.00002802,-0.00001748,0.00001
 535,-0.00000069,-0.00002198,-0.00001038,-0.00000042,-0.00039717,0.0000
 4250,-0.00010113,0.00000614,-0.00002911,0.00003199,0.00001262,0.000026
 79,0.00003250,-0.00037293,0.00018697,0.00001187,-0.00101878,0.00111312
 ,0.00000599,0.00022795,0.00002800,-0.00002576,-0.09165357,-0.14706333,
 -0.30611690,-0.00927401,-0.01732716,-0.04818711,-0.00396232,-0.0093303
 9,0.00091629,0.11140161,0.18333399,0.35699773,0.01908278,0.00261011,0.
 00004797,0.00143148,0.00350079,-0.00001906,-0.00340975,0.00114536,0.00
 000433,-0.00633594,-0.00037918,-0.00005182,-0.01199509,-0.01888022,-0.
 00000756,-0.08619400,-0.02621096,-0.00008042,0.00281348,-0.00096990,0.
 00001441,0.00271887,0.00117918,0.00001624,-0.00428638,-0.00130474,0.00
 001297,0.00007936,-0.00237337,0.00003242,-0.00107566,0.00256587,-0.000
 03804,-0.00020129,-0.00003631,-0.00000078,0.00001787,0.00002959,0.0000
 0027,0.00293228,-0.00463565,0.00000438,-0.00350232,-0.00139239,0.00000
 161,-0.00050523,0.00018584,0.00000201,0.00013276,-0.00028304,-0.000001
 99,0.00027791,0.00056151,-0.00000523,-0.00026885,-0.00021696,0.0000008
 5,0.00002266,-0.00000210,-0.00000046,-0.00025267,0.00007997,0.00001291
 ,0.00059072,0.00001830,-0.00000371,0.00045591,-0.00000645,0.00004331,-
 0.00001418,0.00001149,0.00000105,-0.00002739,-0.00000273,0.00000029,-0
 .00047151,0.00000896,-0.00013258,0.00001128,-0.00003538,0.00004103,0.0
 0000771,0.00003866,0.00004088,-0.00240785,0.00541518,-0.00001444,-0.00
 057102,0.00162378,-0.00000727,-0.00017917,-0.00050038,0.00000171,-0.00
 310590,-0.00004031,0.00001753,0.00094128,0.00026546,-0.00060662,0.0009
 2359,-0.00049131,0.00002150,0.00095351,0.00031293,0.00056376,0.7185655
 3,-0.00191321,-0.02323530,0.00002520,0.00326228,-0.00180405,0.00000411
 ,-0.00134584,0.00053600,0.00000711,0.00322777,-0.00356884,0.00000283,-
 0.01329294,0.00949902,-0.00005343,-0.03497256,-0.12590036,-0.00001817,
 0.00301356,-0.00281288,0.00001343,0.00282316,0.00345370,0.00000189,0.0
 0444525,-0.00036959,0.00000870,0.00071979,-0.00191784,0.00003957,-0.00
 024168,0.00300541,-0.00003421,-0.00014863,-0.00006215,0.00000204,0.000
 04799,0.00003836,0.00000014,-0.00434022,0.00265129,-0.00000274,0.00549
 781,0.00162224,-0.00000834,-0.00368544,-0.00010487,0.00001330,0.001144
 75,-0.00178312,-0.00000804,0.00148977,0.00112630,-0.00001279,-0.001789
 45,-0.00096609,0.00003264,0.00015973,-0.00003182,-0.00000149,-0.001625
 54,0.00154266,0.00004519,0.00009322,0.00034099,0.00000584,0.00286918,-
 0.00044792,0.00021264,-0.00015267,0.00011189,0.00000139,-0.00019349,-0
 .00007140,0.00000208,-0.00302608,0.00033383,-0.00077596,0.00004927,-0.
 00022519,0.00024593,0.00010626,0.00020885,0.00025264,-0.00143730,0.005
 35155,-0.00001548,-0.00080524,0.00255297,-0.00000958,-0.00021580,-0.00
 079655,0.00000358,-0.00496473,0.00031901,0.00003448,0.00156940,0.00034
 461,-0.00099002,0.00145964,-0.00090793,0.00003610,0.00159269,0.0004323
 7,0.00091633,-0.13153555,0.55794860,0.00005755,0.00004105,-0.00064473,
 -0.00001112,0.00002627,0.00317123,0.00000066,0.00000117,-0.00120085,-0
 .00003316,0.00002510,0.00832011,-0.00003816,-0.00005613,0.00082747,-0.
 00007723,-0.00006149,-0.04993045,0.00000041,-0.00000343,-0.00039842,0.
 00000285,-0.00000080,0.00006416,-0.00000433,-0.00001267,-0.00394311,0.
 00000319,0.00000095,-0.00040665,0.00000218,0.00000283,0.00013044,-0.00
 000126,0.00000027,0.00017190,-0.00000013,0.00000048,-0.00001879,0.0000
 4352,0.00003196,-0.00781713,-0.00000720,-0.00000232,0.00146812,-0.0000
 0237,-0.00000394,-0.00052273,0.00000066,-0.00000369,0.00018382,0.00000
 457,0.00000745,-0.00030920,-0.00000584,0.00000164,-0.00010408,0.000001
 29,0.00000083,0.00003782,-0.00000581,0.00000087,0.00001049,-0.00000781
 ,-0.00000663,-0.00007776,0.00000011,-0.00000157,0.00004302,0.00000239,
 -0.00000475,0.00000475,0.00000267,0.00000407,0.00003427,-0.00000319,-0
 .00000352,-0.00001377,0.00000328,-0.00000250,0.00000399,0.00000367,0.0
 0000433,0.00001394,-0.00000099,0.00000693,0.00044374,-0.00000064,0.000
 00136,0.00008320,0.00000041,-0.00000111,0.00002676,-0.00000628,0.00000
 469,0.00006624,0.00002705,0.00000308,-0.00005311,0.00000095,0.00000184
 ,-0.00003307,-0.00002495,-0.00000922,-0.00004947,-0.00004522,-0.000374
 27,0.78619480,-0.00379174,0.00074481,0.00002829,-0.00031400,-0.0002876
 6,0.00047741,0.00049041,-0.00033597,0.00005129,0.00010775,0.00098569,0
 .00208978,-0.00067477,-0.00463580,-0.00015427,-0.00391543,0.00049549,-
 0.01959398,-0.00074662,0.00063735,-0.00016819,-0.00072996,-0.00092485,
 0.00011195,0.00050713,0.00011449,-0.00131651,-0.00019856,0.00055802,-0
 .00015795,0.00008759,-0.00085095,0.00002703,0.00007101,0.00002106,0.00
 002900,-0.00000752,-0.00001151,0.00000111,-0.00014559,0.00226589,0.002
 05329,0.00100192,0.00026840,-0.00090253,0.00036154,-0.00006968,0.00031
 458,-0.00008120,0.00019821,-0.00000039,-0.00014791,-0.00046954,0.00006
 610,0.00017403,0.00013185,0.00000422,-0.00001880,0.00001283,-0.0000106
 4,0.00014127,0.00001046,0.00000602,-0.00134018,0.00080703,0.00036594,-
 0.00027764,-0.00001601,-0.00001985,0.00001051,-0.00000574,-0.00000143,
 0.00001370,0.00000081,0.00000343,0.00027563,0.00000075,0.00007790,-0.0
 0000797,0.00002151,-0.00002345,-0.00000412,-0.00002391,-0.00002791,0.0
 0077788,-0.00153696,0.00007472,0.00024092,-0.00070374,0.00002801,0.000
 00426,0.00018091,0.00000194,0.00133187,-0.00004767,-0.00001510,-0.0004
 1858,-0.00011018,0.00027384,-0.00039720,0.00022439,-0.00001432,-0.0004
 3189,-0.00012594,-0.00025282,-0.18834129,-0.00237220,-0.17403790,0.201
 63935,-0.00034388,0.00115305,0.00064981,0.00015443,0.00143532,0.000801
 50,-0.00030839,-0.00025665,-0.00026189,-0.00094323,0.00089623,0.002055
 40,0.00049702,-0.00508303,-0.00098584,-0.01398042,0.00690153,-0.016656
 42,-0.00044733,0.00090059,-0.00004975,-0.00049499,-0.00084126,0.000172
 67,-0.00057800,0.00001695,-0.00065957,-0.00027331,0.00030579,-0.000266
 90,-0.00011797,-0.00058843,0.00004281,0.00003106,0.00002312,0.00002018
 ,-0.00001944,-0.00001143,0.00000264,0.00210391,-0.00284987,-0.00343149
 ,-0.00308873,-0.00108517,0.00109341,0.00124315,0.00019131,-0.00030323,
 -0.00042430,0.00061137,-0.00005733,-0.00053734,-0.00015458,-0.00005013
 ,0.00063173,0.00032627,0.00001809,-0.00005689,0.00000568,0.00001149,0.
 00061627,-0.00067646,-0.00001823,0.00074952,-0.00091719,-0.00042844,-0
 .00103812,0.00022001,-0.00009320,0.00005747,-0.00004386,-0.00000159,0.
 00007867,0.00002789,0.00000471,0.00111753,-0.00014239,0.00028351,-0.00
 001591,0.00008264,-0.00009102,-0.00004232,-0.00007478,-0.00009103,-0.0
 0003670,-0.00142684,-0.00005990,0.00014059,-0.00070213,0.00001302,0.00
 010835,0.00024617,-0.00001801,0.00128341,-0.00009648,-0.00001091,-0.00
 040033,-0.00009356,0.00025286,-0.00037018,0.00023903,-0.00001585,-0.00
 042783,-0.00011380,-0.00024058,-0.00508091,-0.07958214,-0.00463641,-0.
 01070110,0.05885923,-0.00207576,0.00016804,0.00031794,-0.00009832,0.00
 012504,0.00015023,0.00026087,-0.00029773,0.00009735,-0.00038371,0.0009
 8199,0.00050711,-0.00223072,-0.00582762,0.00020891,-0.00540620,0.00688
 503,-0.00484716,-0.00052275,0.00057991,-0.00009468,-0.00061890,-0.0008
 6891,0.00005793,0.00048689,-0.00014601,-0.00051163,-0.00029286,0.00050
 595,-0.00004902,0.00008625,-0.00062294,0.00002039,0.00005257,0.0000274
 9,-0.00000409,-0.00001439,-0.00001376,-0.00000236,0.00028634,-0.000218
 42,0.00198676,-0.00085639,-0.00066104,-0.00052899,0.00061867,0.0000459
 5,0.00021154,-0.00021023,0.00033810,-0.00001082,-0.00026404,-0.0001804
 3,-0.00000393,0.00035800,0.00018856,-0.00000420,-0.00003253,0.00000193
 ,-0.00001167,0.00032647,-0.00031098,0.00000655,0.00042595,-0.00060272,
 -0.00040690,-0.00055325,0.00008025,-0.00004126,0.00003022,-0.00001838,
 -0.00000200,0.00004115,0.00001024,-0.00000985,0.00059908,-0.00006691,0
 .00015773,-0.00001099,0.00004636,-0.00005030,-0.00002316,-0.00004411,-
 0.00005532,0.00030203,-0.00144364,0.00001199,0.00015079,-0.00062993,0.
 00002536,0.00006829,0.00019285,-0.00001645,0.00112536,-0.00006026,-0.0
 0006071,-0.00035545,-0.00008916,0.00025252,-0.00032994,0.00019401,0.00
 000796,-0.00036597,-0.00011097,-0.00019824,-0.16799339,-0.00078308,-0.
 33137184,0.20755600,-0.00026988,0.38257524,0.00074205,0.00020424,-0.00
 000425,-0.00085021,-0.00004024,0.00000455,0.00008204,-0.00057128,0.000
 00024,0.00287278,-0.00160560,0.00001156,-0.00519785,-0.00274111,-0.000
 02091,0.00025072,-0.00512176,-0.00001595,0.00001690,-0.00016789,0.0000
 0417,-0.00011480,0.00021749,-0.00000262,0.00334630,-0.00184061,0.00001
 021,-0.00008720,0.00029428,-0.00000158,0.00024553,-0.00007317,-0.00000
 103,0.00007803,0.00001665,0.00000072,-0.00000156,-0.00001120,0.0000002
 4,-0.00054992,0.00133308,-0.00000185,0.00108400,0.00031659,-0.00000229
 ,-0.00030887,-0.00001073,-0.00000091,0.00009507,-0.00012955,-0.0000002
 8,0.00011821,0.00002982,0.00000335,-0.00014433,-0.00005244,0.00000457,
 0.00001449,-0.00000219,-0.00000006,-0.00013985,0.00015932,-0.00000085,
 -0.00010194,0.00007357,0.00000201,0.00022254,-0.00006268,0.00001377,-0
 .00001218,0.00000548,0.00000001,-0.00001163,-0.00000354,-0.00000030,-0
 .00024176,0.00003533,-0.00005797,0.00000468,-0.00001969,0.00001863,0.0
 0001166,0.00001648,0.00002027,0.00071887,-0.00031628,0.00000056,0.0000
 3499,-0.00020958,0.00000090,-0.00004720,0.00000741,-0.00000018,0.00015
 287,0.00005851,-0.00000118,-0.00004313,-0.00002921,0.00003503,-0.00004
 631,-0.00000793,-0.00000012,-0.00004124,-0.00003193,-0.00003349,-0.251
 25745,0.17704600,-0.00042474,-0.01957345,0.02834494,-0.01355104,0.2889
 0254,-0.01024875,-0.00236876,-0.00002983,0.00154873,-0.00039734,0.0000
 0264,0.00057489,-0.00063492,-0.00000258,0.00139252,0.00097988,0.000008
 36,-0.00144739,-0.00419725,-0.00001250,0.02706213,-0.02221470,0.000076
 74,-0.00098923,0.00105422,-0.00000357,-0.00119222,-0.00097610,-0.00000
 255,-0.00042641,-0.00256944,-0.00001532,-0.00033353,0.00094353,-0.0000
 1569,0.00017351,-0.00114290,0.00001302,0.00006670,0.00003856,0.0000000
 9,-0.00003020,-0.00001910,0.00000007,-0.00055308,-0.00035740,0.0000028
 1,-0.00102128,-0.00068783,0.00000243,0.00106185,0.00004186,-0.00000444
 ,-0.00034271,0.00056113,0.00000259,-0.00048234,-0.00036668,0.00000316,
 0.00058948,0.00031881,-0.00001093,-0.00005571,0.00001332,0.00000035,0.
 00056641,-0.00053504,-0.00001430,0.00003997,-0.00007679,-0.00000168,-0
 .00099641,0.00017467,-0.00007513,0.00005403,-0.00003941,-0.00000045,0.
 00006779,0.00002557,-0.00000053,0.00105773,-0.00011920,0.00027224,-0.0
 0001740,0.00007819,-0.00008650,-0.00003716,-0.00007216,-0.00008881,0.0
 0046961,-0.00347853,0.00001011,0.00018597,-0.00106045,0.00000372,0.000
 25423,0.00040076,-0.00000128,0.00193679,-0.00011045,-0.00001077,-0.000
 60487,-0.00014089,0.00037816,-0.00056094,0.00035585,-0.00001457,-0.000
 61004,-0.00017425,-0.00035032,0.17963736,-0.26650497,0.00045676,0.0135
 3988,0.00467027,0.00258964,-0.22340766,0.29364937,0.00000089,-0.000000
 28,0.00134554,0.00000176,-0.00000312,-0.00011073,-0.00000279,-0.000002
 45,-0.00000812,0.00000606,-0.00000906,-0.00013733,-0.00001425,-0.00000
 851,0.00030225,-0.00002069,0.00001057,0.00753303,0.00000215,0.00000045
 ,0.00000484,0.00000105,0.00000204,0.00010275,0.00001484,-0.00001874,0.
 00011783,0.00000022,-0.00000161,-0.00005564,-0.00000131,0.00000115,0.0
 0002415,-0.00000005,0.00000037,-0.00000493,-0.00000023,-0.00000021,0.0
 0000046,-0.00000543,-0.00000236,0.00089152,-0.00000044,0.00000106,-0.0
 0004032,0.00000167,0.00000207,0.00012861,-0.00000014,0.00000216,-0.000
 07406,-0.00000228,-0.00000303,0.00005750,0.00000255,-0.00000092,0.0000
 2890,-0.00000069,-0.00000059,-0.00000988,0.00000348,-0.00000106,-0.000
 00366,0.00000152,0.00000098,0.00000756,0.00000146,0.00000141,-0.000001
 90,-0.00000122,0.00000221,-0.00000138,-0.00000150,-0.00000193,-0.00000
 767,-0.00000037,0.00000099,0.00000047,-0.00000100,0.00000070,-0.000001
 03,-0.00000155,-0.00000121,-0.00000296,-0.00000009,0.00000116,-0.00023
 165,-0.00000009,0.00000016,-0.00002573,-0.00000026,-0.00000017,-0.0000
 1343,-0.00000065,-0.00000096,-0.00003002,0.00000517,-0.00000267,0.0000
 1454,0.00000070,-0.00000163,0.00000144,-0.00000523,0.00000338,0.000013
 68,-0.00045217,0.00046038,-0.07485439,-0.03369669,0.02326756,-0.002992
 03,0.00053738,-0.00056764,0.07086657,-0.00380747,0.00073827,-0.0000536
 8,-0.00030823,-0.00028938,-0.00047924,0.00048979,-0.00033863,-0.000056
 07,0.00011679,0.00097938,-0.00209101,-0.00068572,-0.00466173,0.0001571
 4,-0.00401463,0.00055969,0.01957327,-0.00074709,0.00064273,0.00016089,
 -0.00073403,-0.00092829,-0.00011186,0.00050148,0.00011753,0.00131586,-
 0.00020119,0.00055791,0.00014069,0.00008545,-0.00085271,-0.00000622,0.
 00007217,0.00002087,-0.00002815,-0.00000761,-0.00001163,-0.00000135,-0
 .00016297,0.00211321,-0.00202568,0.00099110,0.00026465,0.00090651,0.00
 036688,-0.00006827,-0.00031182,-0.00008298,0.00020160,0.00000198,-0.00
 015191,-0.00047638,-0.00007047,0.00017605,0.00013348,-0.00001087,-0.00
 001921,0.00001249,0.00001059,0.00014586,0.00000975,-0.00001532,-0.0013
 4479,0.00082598,-0.00032465,-0.00027954,-0.00001568,-0.00002322,0.0000
 1058,-0.00000481,0.00000111,0.00001339,0.00000074,-0.00000306,0.000278
 97,-0.00000185,0.00007409,-0.00000912,0.00002234,-0.00002414,-0.000003
 48,-0.00002200,-0.00002124,0.00077867,-0.00154589,-0.00006548,0.000241
 00,-0.00070713,-0.00002289,0.00000473,0.00018170,-0.00000351,0.0013395
 5,-0.00004855,-0.00000734,-0.00042570,-0.00010138,0.00027471,-0.000400
 29,0.00022609,-0.00000565,-0.00042717,-0.00013471,-0.00025556,-0.18986
 523,-0.00228654,0.17457611,0.01500665,0.00207347,-0.01651148,-0.019803
 50,0.01357660,0.03362825,0.20354141,-0.00034296,0.00114094,-0.00065978
 ,0.00015344,0.00142246,-0.00080177,-0.00030846,-0.00025647,0.00025636,
 -0.00092969,0.00088541,-0.00204896,0.00049138,-0.00507506,0.00100512,-
 0.01403357,0.00693103,0.01655860,-0.00044609,0.00089898,0.00004358,-0.
 00049493,-0.00084163,-0.00016848,-0.00058158,0.00002002,0.00065818,-0.
 00027672,0.00030309,0.00023656,-0.00011812,-0.00058739,-0.00002672,0.0
 0003149,0.00002313,-0.00002139,-0.00001892,-0.00001162,-0.00000268,0.0
 0202326,-0.00280869,0.00345655,-0.00309108,-0.00108859,-0.00109326,0.0
 0124480,0.00019317,0.00030146,-0.00042509,0.00061180,0.00006404,-0.000
 53781,-0.00015668,0.00005085,0.00063394,0.00032578,-0.00004627,-0.0000
 5728,0.00000514,-0.00001024,0.00061698,-0.00067633,-0.00001403,0.00075
 375,-0.00088213,0.00044805,-0.00103765,0.00022091,-0.00005635,0.000056
 90,-0.00004173,0.00000078,0.00007751,0.00002582,-0.00000653,0.00111731
 ,-0.00013957,0.00028285,-0.00001565,0.00008348,-0.00008865,-0.00004357
 ,-0.00007786,-0.00009400,-0.00003877,-0.00142399,0.00006560,0.00014003
 ,-0.00070144,-0.00000812,0.00010825,0.00024641,0.00001675,0.00128521,-
 0.00009683,-0.00000162,-0.00042065,-0.00008943,0.00026109,-0.00037137,
 0.00023953,-0.00000627,-0.00040595,-0.00011418,-0.00023454,-0.00506893
 ,-0.07958126,0.00455994,0.00206382,0.01724936,0.00014732,0.02847967,0.
 00467196,-0.02313088,-0.01071012,0.05877420,0.00206427,-0.00015824,0.0
 0032630,0.00009053,-0.00013217,0.00014893,-0.00025520,0.00029666,0.000
 09388,0.00038309,-0.00097267,0.00050650,0.00222560,0.00580410,0.000202
 10,0.00538936,-0.00688315,-0.00473766,0.00051876,-0.00057888,-0.000085
 97,0.00061393,0.00086385,0.00004929,-0.00048055,0.00014496,-0.00050505
 ,0.00029265,-0.00050204,-0.00002297,-0.00008414,0.00061821,0.00000175,
 -0.00005288,-0.00002745,-0.00000287,0.00001450,0.00001307,-0.00000174,
 -0.00028121,0.00021964,0.00193826,0.00085883,0.00066425,-0.00053414,-0
 .00061559,-0.00004541,0.00021131,0.00020912,-0.00033676,-0.00000940,0.
 00026167,0.00017898,-0.00000506,-0.00035486,-0.00018781,0.00000743,0.0
 0003210,-0.00000196,-0.00001248,-0.00032386,0.00030908,0.00002013,-0.0
 0039242,0.00061637,-0.00042241,0.00055022,-0.00008009,0.00004185,-0.00
 003113,0.00001971,-0.00000172,-0.00004175,-0.00001157,-0.00000865,-0.0
 0059417,0.00006776,-0.00014048,0.00000960,-0.00004451,0.00004431,0.000
 02017,0.00004233,0.00004188,-0.00029977,0.00143973,0.00000392,-0.00014
 912,0.00062760,0.00002059,-0.00006851,-0.00019225,-0.00001500,-0.00111
 931,0.00005845,-0.00004375,0.00035862,0.00008968,-0.00021424,0.0003283
 2,-0.00019421,0.00002304,0.00035817,0.00011231,0.00023386,0.16857899,0
 .00071765,-0.32977133,0.01683945,-0.00015067,-0.04526238,0.01345349,-0
 .00251285,-0.00281930,-0.20837831,0.00026664,0.38075999,-0.01282851,-0
 .01129003,-0.00000978,-0.03233772,0.04588564,-0.00011081,0.00848984,-0
 .00377035,0.00001884,0.00276011,0.00383200,-0.00000269,-0.00423338,-0.
 00343337,-0.00000103,0.00161043,-0.00382471,0.00000909,-0.00587890,0.0
 0203601,-0.00001526,-0.00233875,-0.00178611,-0.00000262,-0.00011948,0.
 00005179,-0.00000272,-0.00047933,0.00324601,-0.00002530,0.00348700,-0.
 00144915,0.00001748,0.00006042,-0.00002603,0.00000029,0.00003389,-0.00
 004736,0.00000032,0.02624887,0.00596743,0.00005500,0.00812686,0.017136
 24,-0.00012305,-0.00613997,0.01075204,0.00000836,-0.00012167,-0.000651
 03,-0.00000209,0.00394137,-0.00078347,-0.00000131,0.00034938,-0.000209
 95,-0.00001061,-0.00070701,0.00092563,0.00000420,0.00013673,0.00150030
 ,0.00000037,-0.00022638,-0.00005150,-0.00000249,-0.00036973,-0.0001520
 8,0.00000682,0.00023539,-0.00007306,-0.00000195,0.00047216,-0.00000089
 ,-0.00000316,0.00029301,0.00000966,0.00003182,-0.00002083,0.00000585,-
 0.00001026,-0.00001905,0.00000377,-0.00000904,-0.25659545,-0.03717676,
 0.00001987,0.00832572,-0.00042667,0.00001101,-0.00890521,-0.00654583,0
 .00001618,0.00012619,0.00009500,0.00001048,0.00001732,-0.00005425,-0.0
 0001697,0.00007031,-0.00001777,0.00000453,0.00003675,-0.00005293,0.000
 01510,0.00230919,-0.00027239,0.00000479,-0.00067898,0.00049608,-0.0000
 7347,-0.00041988,-0.00049885,-0.00000005,-0.00067867,0.00049722,0.0000
 7135,0.26596795,-0.00521599,-0.00574000,-0.00000958,0.04076917,0.01400
 453,-0.00000558,0.00407392,-0.00748143,0.00001887,0.00287908,0.0024323
 7,0.00000993,-0.00244416,-0.00128440,-0.00000330,0.00201211,-0.0016724
 0,0.00000637,-0.00174896,-0.00133956,0.00000074,-0.00122512,-0.0011731
 6,-0.00000502,-0.00012661,-0.00000993,-0.00000150,-0.00031448,0.001416
 63,-0.00000862,0.00108481,-0.00037622,0.00000513,0.00013024,0.00000484
 ,0.00000062,0.00003899,-0.00000801,0.00000177,0.00562146,-0.01285649,0
 .00004126,0.01457372,-0.00955434,-0.00004834,-0.00131696,0.00948733,0.
 00000086,0.00002948,0.00111272,0.00000151,0.00291723,-0.00095247,-0.00
 000356,0.00043209,-0.00026010,-0.00001122,0.00016333,-0.00021150,0.000
 00001,0.00037629,0.00070465,-0.00000354,-0.00018240,-0.00008138,-0.000
 00117,-0.00076444,0.00005972,-0.00004055,0.00014309,-0.00005103,0.0000
 0018,0.00034224,-0.00000202,-0.00000196,0.00070286,-0.00010886,0.00016
 316,-0.00001092,0.00004496,-0.00005059,-0.00003984,-0.00003747,-0.0000
 5336,-0.04278997,-0.06607710,0.00008106,-0.00217548,-0.00057894,0.0000
 0283,0.00178283,0.00148498,-0.00000836,0.00055563,0.00001297,0.0000014
 7,-0.00014243,-0.00005020,0.00008353,-0.00011471,0.00010451,-0.0000026
 4,-0.00013673,-0.00005523,-0.00007806,0.00025643,-0.00074537,0.0000006
 1,-0.00005424,0.00037825,0.00015822,-0.00018256,0.00026661,0.00000024,
 -0.00005281,0.00037823,-0.00015835,-0.01984616,0.07881432,0.00000527,0
 .00000095,-0.00233164,-0.00010211,0.00000031,-0.00054842,-0.00001316,0
 .00002681,0.00282041,-0.00000857,-0.00000319,0.00106272,0.00000523,0.0
 0000084,-0.00001773,-0.00000236,0.00000257,-0.00059676,-0.00000112,0.0
 0000099,-0.00080916,0.00000426,-0.00000085,-0.00022352,0.00000043,-0.0
 0000007,0.00000807,-0.00000419,0.00000139,-0.00002054,0.00000224,0.000
 00072,-0.00004750,-0.00000069,0.00000097,0.00005220,-0.00000057,-0.000
 00025,0.00005011,-0.00000705,0.00001854,0.00877022,-0.00003019,-0.0000
 0547,-0.02144260,-0.00001220,-0.00002224,0.00054929,0.00000263,0.00000
 119,-0.00040836,0.00000194,0.00000267,0.00088565,-0.00000234,-0.000004
 24,0.00008063,-0.00000141,-0.00000146,0.00006101,-0.00000269,0.0000000
 5,0.00003712,-0.00000021,-0.00000013,-0.00008277,0.00000020,-0.0000023
 4,0.00007704,-0.00000199,0.00000232,-0.00001121,0.00000004,0.00000034,
 -0.00012516,-0.00000204,0.00000827,-0.00002047,0.00000190,-0.00000105,
 0.00000318,-0.00000004,-0.00000390,-0.00000231,0.00004561,0.00006558,-
 0.02004441,0.00000813,0.00000565,0.00103917,-0.00000403,-0.00001040,-0
 .00196387,-0.00000337,0.00000204,0.00005723,0.00000677,0.00000537,-0.0
 0000857,0.00000285,0.00000230,-0.00000402,-0.00000590,-0.00001184,-0.0
 0000902,0.00000033,0.00000240,0.00022060,-0.00008736,0.00015861,-0.000
 05968,-0.00000008,-0.00000063,-0.00001549,0.00008707,-0.00015974,-0.00
 005872,0.00011875,-0.00008307,0.03307729\\0.00000405,0.00001960,0.0000
 0259,0.00000074,-0.00000851,-0.00000092,-0.00000600,-0.00000971,0.0000
 0029,-0.00000539,-0.00000194,0.00000052,0.00000721,0.00000410,0.000001
 69,-0.00000226,-0.00000095,-0.00000010,-0.00000434,0.00000235,0.000001
 84,-0.00000707,0.00000148,0.00001062,0.00000010,0.00000134,0.00000099,
 -0.00000163,0.00000326,-0.00000975,-0.00000291,0.00000291,-0.00000307,
 0.00000109,-0.00000016,-0.00000328,0.00000169,0.00000096,-0.00000173,-
 0.00000867,0.00002210,0.00000121,-0.00001500,-0.00001290,-0.00000566,0
 .00000321,0.00000175,0.00000114,0.00001476,0.00000045,-0.00000260,0.00
 000951,-0.00000912,0.00000036,-0.00000487,-0.00000484,-0.00000025,-0.0
 0000176,-0.00000269,-0.00000067,-0.00001312,0.00000137,-0.00000205,-0.
 00000151,0.00000373,0.00000260,0.00001431,-0.00000869,0.00000648,-0.00
 000007,-0.00000007,-0.00000127,-0.00000168,0.00000081,0.00000033,-0.00
 001014,0.00000511,-0.00001897,-0.00000057,-0.00000186,0.00000422,-0.00
 000055,-0.00000160,0.00000634,0.00001224,0.00000035,-0.00000170,0.0000
 2262,0.00000353,-0.00000037,-0.00000870,-0.00000649,-0.00000126,0.0000
 0095,-0.00000079,-0.00000351,-0.00000548,-0.00000037,0.00000618,0.0000
 0078,0.00000359,0.00000592,0.00000324,-0.00000010,-0.00000032,0.000002
 22,0.00000453,-0.00000144,0.00000194,-0.00000738,0.00000428,-0.0000006
 1,0.00000080,0.00000012,-0.00000192,0.00000210,-0.00000081,0.00000357,
 -0.00000801,0.00000199\\\@
 The archive entry for this job was punched.


 IF OTHER PEOPLE ARE GOING TO TALK, CONVERSATION IS SIMPLY IMPOSSIBLE.

                                               -- WHISTLER'S PRINCIPLE
 Job cpu time:       3 days 10 hours 49 minutes  4.6 seconds.
 Elapsed time:       0 days  2 hours 26 minutes 18.2 seconds.
 File lengths (MBytes):  RWF=   2340 Int=      0 D2E=      0 Chk=     64 Scr=      8
 Normal termination of Gaussian 16 at Wed Mar 19 19:26:40 2025.
